LAMMPS (9 Dec 2014)
# 4 layer nanoparticle of K-illite

variable Tdesired equal 900
variable rampLength equal 1000
variable Tstart equal 100
variable runLength equal 1000
variable xReplica equal 1
variable yReplica equal 1

units metal #defines the units: time in ps, distances in Angstrom, energies in eV, etc.

dimension 3 #3-D system

atom_style full

#LJ+coulomb solved up to 15 Angstrom, coulomb solved in k-space beyond 15 A

pair_style lj/cut/coul/long 15.0

#Lorentz-Berthelot combining rules for the LJ interactions
pair_modify mix arithmetic

# Bond and angles exist
bond_style harmonic
#angle_style harmonic

#increasing the page size as the distance used is 15 angstorm
# ??? The values are arbitrary for now; should try lower values
neigh_modify one 50000 page 50000000

#Setting up the system

#input file
#There should be an accompanying file named "cutoff_file.illite" that contains
# the what atoms are what types - please see that; if it's not there
# please reach me at kedar.kolluri@gmail.com

read_data dat_lammps.test_data
  triclinic box = (0 0 0) to (15.678 18.0366 40.0892) with tilt (0 -3.97671 0)
  1 by 1 by 1 MPI processor grid
  reading atoms ...
  993 atoms
  scanning bonds ...
  1 = max bonds/atom
  scanning angles ...
  2 = max angles/atom
  reading velocities ...
  993 velocities
  reading bonds ...
  96 bonds
  reading angles ...
  192 angles
  1 = max # of 1-2 neighbors
  0 = max # of 1-3 neighbors
  0 = max # of 1-4 neighbors
  1 = max # of special neighbors

#Lennard-Jones pair coefficients for all atom types (the units are eV and Angstrom)
# please see comment for read_data command for details on what atom is what type

pair_coeff      1       1       7.98102e-8      3.30203 #Si_base_tet-Si_base_tet
#pair_coeff     1       1       0 0

pair_coeff      2       2       7.98102e-8      3.30203 #Si_oct-Si_oct
#pair_coeff      2       2       0 0

pair_coeff      3       3       5.76646e-8      4.27124 #Al_oct-Al_oct
#pair_coeff     3       3       0 0

pair_coeff      4       4       5.76646e-8      4.27124 #Al_tet-Al_tet
#pair_coeff     4       4       0 0

pair_coeff      5       5       6.73853e-3      3.16556 #O_regular-O_regular
#pair_coeff     5       5       0 0

pair_coeff      6       6       6.73853e-3      3.16556 #O_hydroxyl-O_hydroxly
#pair_coeff     6       6       0 0

pair_coeff      7       7       4.337e-3        3.33200 #K from Dang (1995)
#pair_coeff     7       7       0 0

pair_coeff      8       8       0.0             0.00000 #H_hydroxyl-H_hydroxyl

pair_coeff      9       9       6.73853e-3      3.16556 #O_bridge-O_bridge
#pair_coeff     9       9       0 0

pair_coeff      10      10      0.0             0.00000 #dummy - no such type exists


#Begin- Info from Laura's matlab file
#bondcoeffs = [1, 24.0291, 1.0; 2, 24.0291, 1.0; 3, 0.0, 1.65;...
#              4.0, 0.0, 2.05; 5, 24.0291, 1.0]; %Bond coefficients
#where 1. O-H (6-9), 2. O-He(NA), 3. Si-Oe(NA), 4. Al-Oe(NA), 5. Hw-Ow(NA)

#anglecoeffs = [1, 1.30090, 109.47; 2, 1.30090, 109.47; 3, 1.98472, 109.47;...
#                4, 1.98472, 109.47]; %Angle coefficients
#where % Angle types: 1. Si-O-H (1, 2), 2. Al-O-H (3, 4), 3. He-O-He(NA), 4. Hw-Ow-Hw(NA)
#End- Info is from Laura's matlab file

#relevant bond information for this case
bond_coeff 1 24.0291 1.0
#bond_coeff 1 0.0 0.0

#relevant angle information for this case
#angle_coeff 1 1.30090 109.47
#angle_coeff 2 1.30090 109.47
#angle_coeff 3 1.98472 109.47
#angle_coeff 4 1.98472 109.47
#angle_coeff 1 0 0
#angle_coeff 2 0 0
#angle_coeff 3 0 0
#angle_coeff 4 0 0

#k-space solver parameters (for electrostatic interactions)
kspace_style pppm 1e-5


minimize 0.0 0.0 1000 100000
WARNING: Resetting reneighboring criteria during minimization (../min.cpp:168)
PPPM initialization ...
WARNING: System is not charge neutral, net charge = -0.0066 (../kspace.cpp:294)
  G vector (1/distance) = 0.222203
  grid = 15 16 30
  stencil order = 5
  estimated absolute RMS force accuracy = 7.94014e-05
  estimated relative force accuracy = 5.51413e-06
  using double precision FFTs
  3d grid and FFT values/proc = 18722 7200
Memory usage per processor = 16.0971 Mbytes
Step Temp E_pair E_mol TotEng Press 
       0            0   -9062.9207 0.0031942773   -9062.9175    393795.91 
     297            0   -9970.2881    1.9380019   -9968.3501    3736.0942 
Loop time of 27.932 on 1 procs for 297 steps with 993 atoms

Minimization stats:
  Stopping criterion = linesearch alpha is zero
  Energy initial, next-to-last, final = 
        -9062.91746879     -9968.35013878     -9968.35013878
  Force two-norm initial, final = 654.574 0.033926
  Force max component initial, final = 74.6548 0.0103796
  Final line search alpha, max atom move = 7.62939e-06 7.91903e-08
  Iterations, force evaluations = 297 636

Pair  time (%) = 25.641 (91.7978)
Bond  time (%) = 0.00249982 (0.00894966)
Kspce time (%) = 1.89395 (6.78057)
Neigh time (%) = 0.27707 (0.991945)
Comm  time (%) = 0.0880966 (0.315397)
Outpt time (%) = 0 (0)
Other time (%) = 0.0294108 (0.105294)

Nlocal:    993 ave 993 max 993 min
Histogram: 1 0 0 0 0 0 0 0 0 0
Nghost:    15976 ave 15976 max 15976 min
Histogram: 1 0 0 0 0 0 0 0 0 0
Neighs:    895143 ave 895143 max 895143 min
Histogram: 1 0 0 0 0 0 0 0 0 0

Total # of neighbors = 895143
Ave neighs/atom = 901.453
Ave special neighs/atom = 0.193353
Neighbor list builds = 4
Dangerous builds = 0
minimize 0.0 0.0 1000 100000
WARNING: Resetting reneighboring criteria during minimization (../min.cpp:168)
PPPM initialization ...
  G vector (1/distance) = 0.222203
  grid = 15 16 30
  stencil order = 5
  estimated absolute RMS force accuracy = 7.94014e-05
  estimated relative force accuracy = 5.51413e-06
  using double precision FFTs
  3d grid and FFT values/proc = 18722 7200
Memory usage per processor = 16.0971 Mbytes
Step Temp E_pair E_mol TotEng Press 
     297            0   -9970.2881    1.9380019   -9968.3501    3736.0942 
     301            0   -9970.2882    1.9380574   -9968.3502    3736.8162 
Loop time of 2.0134 on 1 procs for 4 steps with 993 atoms

Minimization stats:
  Stopping criterion = linesearch alpha is zero
  Energy initial, next-to-last, final = 
        -9968.35013878     -9968.35018269     -9968.35018269
  Force two-norm initial, final = 0.033926 0.0314785
  Force max component initial, final = 0.0103796 0.00512829
  Final line search alpha, max atom move = 7.62939e-06 3.91257e-08
  Iterations, force evaluations = 4 47

Pair  time (%) = 1.86983 (92.8693)
Bond  time (%) = 0.000187397 (0.00930749)
Kspce time (%) = 0.135319 (6.72094)
Neigh time (%) = 0 (0)
Comm  time (%) = 0.00635338 (0.315555)
Outpt time (%) = 0 (0)
Other time (%) = 0.00171018 (0.0849397)

Nlocal:    993 ave 993 max 993 min
Histogram: 1 0 0 0 0 0 0 0 0 0
Nghost:    15963 ave 15963 max 15963 min
Histogram: 1 0 0 0 0 0 0 0 0 0
Neighs:    895166 ave 895166 max 895166 min
Histogram: 1 0 0 0 0 0 0 0 0 0

Total # of neighbors = 895166
Ave neighs/atom = 901.476
Ave special neighs/atom = 0.193353
Neighbor list builds = 0
Dangerous builds = 0
minimize 0.0 0.0 1000 100000
WARNING: Resetting reneighboring criteria during minimization (../min.cpp:168)
PPPM initialization ...
  G vector (1/distance) = 0.222203
  grid = 15 16 30
  stencil order = 5
  estimated absolute RMS force accuracy = 7.94014e-05
  estimated relative force accuracy = 5.51413e-06
  using double precision FFTs
  3d grid and FFT values/proc = 18722 7200
Memory usage per processor = 16.0971 Mbytes
Step Temp E_pair E_mol TotEng Press 
     301            0   -9970.2882    1.9380574   -9968.3502    3736.8162 
     302            0   -9970.2882    1.9380574   -9968.3502    3736.8162 
Loop time of 1.57229 on 1 procs for 1 steps with 993 atoms

Minimization stats:
  Stopping criterion = linesearch alpha is zero
  Energy initial, next-to-last, final = 
        -9968.35018269     -9968.35018269     -9968.35018269
  Force two-norm initial, final = 0.0314785 0.0314785
  Force max component initial, final = 0.00512829 0.00512829
  Final line search alpha, max atom move = 7.62939e-06 3.91257e-08
  Iterations, force evaluations = 1 35

Pair  time (%) = 1.45891 (92.7887)
Bond  time (%) = 0.000156403 (0.00994743)
Kspce time (%) = 0.106665 (6.78405)
Neigh time (%) = 0 (0)
Comm  time (%) = 0.005198 (0.3306)
Outpt time (%) = 0 (0)
Other time (%) = 0.00136352 (0.0867215)

Nlocal:    993 ave 993 max 993 min
Histogram: 1 0 0 0 0 0 0 0 0 0
Nghost:    15963 ave 15963 max 15963 min
Histogram: 1 0 0 0 0 0 0 0 0 0
Neighs:    895166 ave 895166 max 895166 min
Histogram: 1 0 0 0 0 0 0 0 0 0

Total # of neighbors = 895166
Ave neighs/atom = 901.476
Ave special neighs/atom = 0.193353
Neighbor list builds = 0
Dangerous builds = 0
minimize 0.0 0.0e-8 1000 100000
WARNING: Resetting reneighboring criteria during minimization (../min.cpp:168)
PPPM initialization ...
  G vector (1/distance) = 0.222203
  grid = 15 16 30
  stencil order = 5
  estimated absolute RMS force accuracy = 7.94014e-05
  estimated relative force accuracy = 5.51413e-06
  using double precision FFTs
  3d grid and FFT values/proc = 18722 7200
Memory usage per processor = 16.0971 Mbytes
Step Temp E_pair E_mol TotEng Press 
     302            0   -9970.2882    1.9380574   -9968.3502    3736.8162 
     303            0   -9970.2882    1.9380574   -9968.3502    3736.8162 
Loop time of 1.60999 on 1 procs for 1 steps with 993 atoms

Minimization stats:
  Stopping criterion = linesearch alpha is zero
  Energy initial, next-to-last, final = 
        -9968.35018269     -9968.35018269     -9968.35018269
  Force two-norm initial, final = 0.0314785 0.0314785
  Force max component initial, final = 0.00512829 0.00512829
  Final line search alpha, max atom move = 7.62939e-06 3.91257e-08
  Iterations, force evaluations = 1 35

Pair  time (%) = 1.49642 (92.9457)
Bond  time (%) = 0.000133514 (0.00829288)
Kspce time (%) = 0.106819 (6.63478)
Neigh time (%) = 0 (0)
Comm  time (%) = 0.00531578 (0.330175)
Outpt time (%) = 0 (0)
Other time (%) = 0.0013051 (0.0810629)

Nlocal:    993 ave 993 max 993 min
Histogram: 1 0 0 0 0 0 0 0 0 0
Nghost:    15963 ave 15963 max 15963 min
Histogram: 1 0 0 0 0 0 0 0 0 0
Neighs:    895166 ave 895166 max 895166 min
Histogram: 1 0 0 0 0 0 0 0 0 0

Total # of neighbors = 895166
Ave neighs/atom = 901.476
Ave special neighs/atom = 0.193353
Neighbor list builds = 0
Dangerous builds = 0

replicate ${xReplica} ${yReplica} 1
replicate 1 ${yReplica} 1
replicate 1 1 1
  triclinic box = (0 0 0) to (15.678 18.0366 40.0892) with tilt (0 -3.97671 0)
  1 by 1 by 1 MPI processor grid
  993 atoms
  96 bonds
  192 angles
  1 = max # of 1-2 neighbors
  0 = max # of 1-3 neighbors
  0 = max # of 1-4 neighbors
  1 = max # of special neighbors

#equations of motion solved with the Verlet algorithm
run_style verlet


#define atoms that will move
#for now, all atoms are moving but there will be a problem with that
group mobile type 1 2 3 4 5 6 7 8 9 10
993 atoms in group mobile


#use only temp of mobile atoms so that appropriate velocity is assigned to them
#otherwsie average velocity will be much lower and actual simulation temp will be much lower than desired simulation temp
compute mobile_temp mobile temp

#compute stress (all contributions) for only mobile atoms
# don't know what to do with pressure, really but lets just compute for now
compute mobile_stress mobile stress/atom mobile_temp

# pressure in GPa
variable press_gpa equal press*0.0001

compute energy all pe/atom
compute pe all reduce sum c_energy

compute bond_energy all pe/atom bond
compute ebond all reduce sum c_bond_energy

group katoms type 7
33 atoms in group katoms

compute katom_disp katoms displace/atom
compute max_katom_disp all reduce max c_katom_disp[4]

compute allatom_disp all displace/atom
compute max_allatom_disp all reduce max c_allatom_disp[4]

#logging simulation data
thermo_style custom step etotal ke enthalpy temp v_press_gpa c_max_allatom_disp c_max_katom_disp cpu

#frequency with which the thermodynamic output will be reported
thermo 1

velocity all create ${Tstart} 4945790 rot yes mom yes dist uniform
velocity all create 100 4945790 rot yes mom yes dist uniform
timestep 0.001
fix nvt_warmup all nvt temp ${Tstart} ${Tdesired} 0.05
fix nvt_warmup all nvt temp 100 ${Tdesired} 0.05
fix nvt_warmup all nvt temp 100 900 0.05
fix momfix all momentum 5 linear 1 1 1 angular
run ${rampLength}
run 1000
PPPM initialization ...
  G vector (1/distance) = 0.222203
  grid = 15 16 30
  stencil order = 5
  estimated absolute RMS force accuracy = 7.94014e-05
  estimated relative force accuracy = 5.51413e-06
  using double precision FFTs
  3d grid and FFT values/proc = 18722 7200
Memory usage per processor = 19.72 Mbytes
Step TotEng KinEng Enthalpy Temp press_gp max_alla max_kato CPU 
     303   -9955.5276    12.822606    -9920.539          100     0.494497 5.3290705e-15 3.5527137e-15            0 
     304   -9955.4961    12.449697   -9921.1367    97.091782    0.4856038  0.023190564 0.0036420536  0.041672945 
     305   -9955.4538    11.721394   -9920.8581    91.411944   0.48894424  0.045173205 0.0072819133  0.088392019 
     306   -9955.4673    11.162755    -9918.996    87.055277   0.51545286  0.065642308  0.010917001   0.12891102 
     307   -9955.5032    10.606474   -9916.0126    82.716988   0.55812368  0.085272542  0.014544526   0.17522812 
     308   -9955.4854    9.6010473   -9913.0347    74.875942    0.5999604   0.10461218  0.018161158   0.21652412 
     309   -9955.4287    8.3315118    -9910.572    64.975182   0.63396476    0.1232966  0.021763523   0.25811315 
     310   -9955.4128    7.4440416   -9908.5398    58.054044   0.66245899   0.14056031  0.025348685   0.30762815 
     311   -9955.4462    7.0580473   -9907.2989    55.043781   0.68046952      0.15609  0.028913661   0.35816312 
     312   -9955.4516    6.6540509   -9907.6435    51.893123   0.67567662   0.16998543  0.032457849     0.409832 
     313   -9955.3995    6.0223358   -9909.5732     46.96655   0.64766762   0.18211748  0.035980278   0.46942306 
     314   -9955.3587    5.6346752   -9911.9385    43.943291   0.61366212   0.19446064  0.039479984   0.52522707 
     315   -9955.3768    5.8028229   -9913.7277    45.254628   0.58863018   0.20686012  0.042955587   0.58052111 
     316   -9955.3965    6.0854586   -9915.0416    47.458827   0.57033965   0.21846902  0.046403262   0.63071418 
     317   -9955.3536    5.9801531   -9916.3354    46.637579   0.55144734   0.22880431  0.049822237   0.69566202 
     318   -9955.2871    5.7244674    -9917.392    44.643555   0.53557545    0.2372572  0.053209748   0.75219202 
     319   -9955.2721    5.8337182    -9917.799    45.495572    0.5296106    0.2434555  0.056563322   0.79862595 
     320   -9955.2906    6.1768338   -9917.9603    48.171438   0.52759271   0.24753403   0.05988104   0.85401011 
     321   -9955.2628    6.1879454   -9918.6925    48.258094   0.51685168   0.25005085  0.063159785   0.89507508 
     322    -9955.187    5.8483325   -9919.9279    45.609546   0.49831936   0.25164935  0.066399889   0.94237518 
     323   -9955.1435    5.7389666   -9920.7189    44.756631   0.48652594   0.25278415   0.06959967   0.98529315 
     324   -9955.1579    6.0585485   -9920.6224    47.248962   0.48809306   0.25360297   0.07275672    1.0348802 
     325   -9955.1571     6.292569    -9920.245    49.074025   0.49341584   0.25389632  0.075867814     1.084707 
     326   -9955.0956    6.1035243   -9920.1548    47.599716   0.49382133   0.25312134  0.078931765     1.125917 
     327   -9955.0347    5.9052939   -9920.0903    46.053772   0.49387237   0.25064029  0.081942225     1.169049 
     328   -9955.0352    6.1313722   -9919.7548    47.816895   0.49862116   0.25131402  0.084895978    1.2168221 
     329   -9955.0533    6.4622091   -9919.6718    50.397001   0.50004914   0.25390152  0.087806846    1.2585211 
     330   -9955.0143    6.3545953   -9920.4196     49.55775   0.48893052   0.25592953  0.090864766    1.3031981 
     331   -9954.9418    5.9686127   -9921.4876    46.547578   0.47281062   0.25855947  0.093854412     1.358187 
     332    -9954.917    5.8932969   -9921.7588    45.960211   0.46862824    0.2663615  0.096788156     1.400136 
     333   -9954.9382     6.144407   -9920.9737     47.91855   0.48002422   0.27386458  0.099663138     1.440814 
     334   -9954.9239    6.1605613   -9919.8713    48.044533    0.4954013   0.28213713   0.10247742     1.481318 
     335   -9954.8535    5.8026466   -9918.9309    45.253254   0.50769726   0.29084242   0.10522983    1.5263481 
     336   -9954.8031    5.6265303   -9917.9085    43.879771   0.52143492   0.29811637   0.10790629     1.581943 
     337   -9954.8141    5.9472658   -9916.8343      46.3811   0.53677159   0.30317937   0.11051966    1.6227291 
     338   -9954.8212    6.3045304    -9916.505    49.167308   0.54152609    0.3074098   0.11306949    1.6630421 
     339   -9954.7644    6.2508308    -9917.373     48.74852   0.52845582    0.3120885   0.11555553    1.7054861 
     340   -9954.6923     6.106131   -9918.6305    47.620045   0.50966432   0.31653799   0.11797802    1.7476141 
     341   -9954.6779     6.378912   -9919.1202     49.74739   0.50253948   0.31960807   0.12032929     1.788022 
     342   -9954.6922    6.8545245   -9918.7324    53.456562   0.50822391   0.32172316   0.12261995    1.8306081 
     343   -9954.6533     6.933281   -9918.1411    54.070762   0.51603058   0.32403579   0.12485274      1.87045 
     344   -9954.5687    6.6431765   -9917.5547    51.808316   0.52312192   0.32617812   0.12703082    1.9129121 
     345   -9954.5222      6.58266   -9916.6719    51.336365   0.53494124   0.32661454   0.12915736     1.956286 
     346   -9954.5304    6.8892481   -9915.7875    53.727361    0.5475575   0.32505898   0.13122932    2.0047691 
     347   -9954.5138    7.0117692   -9915.8736     54.68287   0.54610632   0.32285662   0.13325469     2.050302 
     348   -9954.4348    6.6810638   -9917.2291    52.103789   0.52583188   0.32074234   0.13523526     2.099577 
     349   -9954.3634    6.3997347   -9918.8924    49.909781   0.50131488   0.31771543   0.13717265    2.1405032 
     350    -9954.357    6.5971841   -9919.8902    51.449635   0.48712136   0.31296124   0.13906859     2.182318 
     351   -9954.3609    6.9019394   -9920.3803    53.826338   0.48025151   0.30742426   0.14091992     2.223501 
     352   -9954.3027    6.7873507   -9920.9754    52.932692    0.4710172   0.30217409   0.14273376     2.264374 
     353   -9954.2169    6.4790777   -9921.5945    50.528555   0.46105495    0.2962591   0.14451178    2.3053541 
     354   -9954.1856    6.5567344   -9921.8355    51.134178   0.45720818   0.28785307   0.14625495    2.3463941 
     355   -9954.1961    6.9366817   -9922.0685    54.097283   0.45406282    0.2816225   0.14796332     2.390907 
     356   -9954.1622    6.9979242   -9923.1046    54.574897    0.4389395   0.29199779   0.14963016    2.4315321 
     357   -9954.0734    6.6422009   -9924.7933    51.800708   0.41381795   0.30252217      0.15126     2.472194 
     358   -9954.0128    6.4614922   -9925.9106    50.391411   0.39717043    0.3098425   0.15285117     2.519664 
     359   -9954.0147     6.720643    -9925.679    52.412457   0.40047078   0.31343977    0.1544022    2.5612881 
     360   -9954.0045    6.9098413   -9924.5575    53.887962   0.41617616   0.31488718   0.15591198    2.6091461 
     361   -9953.9282     6.641339    -9923.214    51.793986   0.43408623   0.31630566   0.15737319    2.6504021 
     362   -9953.8457     6.340769   -9921.5853    49.449923   0.45594002     0.318847   0.15879154    2.6907411 
     363    -9953.828    6.5323667   -9919.5849    50.944141   0.48396114   0.32275004   0.16016582    2.7316701 
     364   -9953.8341    6.9443456   -9917.9915    54.157052   0.50656604   0.32780816   0.16149441    2.7773499 
     365   -9953.7812    6.9786653   -9917.6603    54.424702   0.51050068   0.33298493    0.1627754    2.8254511 
     366   -9953.6879    6.7374016    -9918.175    52.543153   0.50190681   0.33621199   0.16400103     2.866657 
     367   -9953.6411    6.8327688   -9918.2331    53.286895   0.50042503     0.335619     0.165176    2.9089351 
     368   -9953.6464    7.3088046   -9917.2809    56.999368   0.51395619   0.33119774   0.16629977    2.9496191 
     369   -9953.6172     7.540848   -9915.8894    58.809011   0.53320943   0.32479495    0.1673726     2.991477 
     370   -9953.5245    7.2952973   -9914.5174    56.894028   0.55129121    0.3185183   0.16839531    3.0332081 
     371    -9953.447    7.1252924   -9912.9349    55.568207   0.57256106   0.31354108   0.16936344     3.080951 
     372   -9953.4363    7.4142914   -9911.2276    57.822031   0.59653903   0.31022351   0.17028347    3.1222181 
     373   -9953.4272    7.7180146   -9910.3642    60.190685   0.60861404   0.30837118     0.171156     3.168716 
     374    -9953.351    7.5404396   -9911.0235    58.805826   0.59821893   0.30732061   0.17198138    3.2102911 
     375   -9953.2549    7.2043305   -9912.4609    56.184603   0.57654452   0.31849996   0.17275999    3.2487411 
     376   -9953.2198    7.3091736   -9913.3617    57.002246   0.56331879   0.32942218   0.17348659    3.2871721 
     377   -9953.2221    7.7027516    -9913.424    60.071653   0.56246989   0.34007409   0.17416824    3.3261731 
     378   -9953.1724    7.7455581    -9913.255    60.405489   0.56415646   0.35065824   0.17480638     3.367759 
     379   -9953.0707    7.4125531   -9913.0494    57.808474   0.56562532   0.36136133   0.17540249    3.4103351 
     380   -9953.0067    7.3320765   -9912.4383    57.180859   0.57335679    0.3722616   0.17595774     3.450773 
     381   -9953.0039    7.6945488   -9911.6518    60.007682   0.58443324     0.383401   0.17646641     3.492976 
     382   -9952.9797    7.9128718   -9911.6967    61.710323   0.58345607   0.39475286   0.17693499     3.533838 
     383   -9952.8868    7.6316836   -9912.9261    59.517413   0.56476781   0.40603622   0.17736292    3.5857902 
     384   -9952.7962      7.34266   -9914.2879    57.263397   0.54424169   0.41677492   0.17774953    3.6271172 
     385   -9952.7745    7.5410729   -9914.6018    58.810765   0.53949908   0.42665857   0.17809429     3.668601 
     386    -9952.769    7.8769781   -9913.9282    61.430398   0.54894094   0.43581256   0.17839185     3.709697 
     387   -9952.6982    7.7658258   -9912.9856    60.563551   0.56126277   0.44468016   0.17864784     3.749974 
     388    -9952.593    7.4093672   -9911.8862    57.783629   0.57531317   0.45368817   0.17886245    3.7912791 
     389   -9952.5433      7.45816   -9910.3998     58.16415    0.5956178   0.46306841   0.17903571     3.831986 
     390   -9952.5432    7.8925491   -9909.1074    61.551832   0.61388129   0.47282916   0.17916726    3.8733871 
     391   -9952.5006    8.0532772   -9909.1047    62.805306   0.61331872    0.4826924   0.17925409     3.914238 
     392   -9952.3954    7.7724932    -9910.428    60.615548   0.59312934   0.49209206    0.1792976    3.9590461 
     393   -9952.3155    7.6543752   -9911.7846    59.694379   0.57282675   0.50042508   0.17929711    3.9994671 
     394   -9952.3034    8.0184846   -9912.1468    62.533969    0.5675368   0.50747984   0.17925235    4.0397151 
     395   -9952.2839    8.3326942   -9911.7822    64.984403   0.57241507   0.51361104   0.17916362    4.0854571 
     396   -9952.1923    8.1222833    -9911.295    63.343466   0.57800563    0.5194832     0.179032    4.1292372 
     397    -9952.088     7.789542   -9910.5939    60.748507   0.58644004   0.52569647   0.17885755    4.1696692 
     398   -9952.0513    7.9257158   -9909.5699     61.81049   0.60039411   0.53253902    0.1786408     4.209548 
     399   -9952.0457    8.2977777   -9909.0897    64.712099   0.60710077   0.53992222   0.17838189     4.250494 
     400   -9951.9803    8.2597875   -9910.2051    64.415823   0.59041154   0.54735036   0.17808057     4.291045 
     401   -9951.8668     7.880962   -9912.6009    61.461467   0.55494891     0.554038   0.17773679    4.3379791 
     402   -9951.8006    7.8378643   -9914.8414     61.12536   0.52234772   0.55933022   0.17734927     4.378695 
     403    -9951.795     8.251593    -9916.113    64.351917    0.5042966   0.56311332   0.17691795    4.4237821 
     404   -9951.7585    8.4750292   -9916.8076    66.094435   0.49396378   0.56589124   0.17644308    4.4640532 
     405   -9951.6521    8.2020971   -9917.2918    63.965912   0.48561763    0.5684372   0.17592503    4.5049741 
     406   -9951.5568    7.9877623   -9917.2254    62.294373   0.48520801   0.57136307   0.17536314    4.5454531 
     407   -9951.5336    8.2789819   -9916.5867    64.565515   0.49390706   0.57488915   0.17475757    4.5880342 
     408   -9951.5176    8.6311241   -9916.3742    67.311776   0.49668382   0.57875541   0.17410753    4.6289411 
     409   -9951.4309    8.4678374   -9917.4018    66.038348   0.48093693   0.58224191   0.17341176    4.6710131 
     410   -9951.3159    8.0777205   -9918.9614    62.995933   0.45727029   0.58441673   0.17266883     4.711699 
     411   -9951.2644     8.125365   -9919.6063    63.367499   0.44742687   0.58463759   0.17207612    4.7521241 
     412   -9951.2576    8.5148422   -9918.9011    66.404926   0.45729821   0.58294452   0.17277754     4.794445 
     413   -9951.1997    8.5674639   -9917.4883    66.815307    0.4764462   0.58003598   0.17346098    4.8355851 
     414   -9951.0822    8.2073355   -9915.7104    64.006764   0.49991164    0.5768309   0.17411861     4.876739 
     415   -9951.0001    8.1052273   -9913.3347    63.210451   0.53232768   0.57401989    0.1747425     4.918982 
     416   -9950.9867    8.5261634   -9910.7423    66.493216   0.56877661   0.57183553   0.17532224      4.96035 
     417   -9950.9562    8.8664353   -9909.1945    69.146904   0.59022184   0.56993825    0.1758527    5.0014801 
     418   -9950.8508    8.6864744   -9909.2848    67.743438   0.58745554   0.56751358   0.17632659     5.042186 
     419    -9950.741    8.4597273   -9909.9737    65.975099   0.57616727   0.56362128   0.17673694    5.0869031 
     420   -9950.7034    8.7436345   -9909.8653    68.189214   0.57716889   0.55776822   0.17707723    5.1314001 
     421    -9950.689    9.2029017   -9908.8053    71.770913   0.59194614   0.55028096   0.17734068    5.1753411 
     422   -9950.6061    9.1743971   -9907.4574    71.548613   0.60982546   0.55788181   0.17752253    5.2180591 
     423   -9950.4806    8.8056667   -9905.9637    68.672986   0.62916138   0.56727654   0.17761801    5.2608762 
     424   -9950.4101    8.7997546   -9904.1103    68.626879     0.654359   0.57445334   0.17762314    5.3029931 
     425   -9950.3973    9.2025582   -9902.5655    71.768235   0.67601183   0.57962999    0.1775348    5.3454041 
     426   -9950.3443    9.3266649   -9902.6314    72.736108   0.67433008   0.58412607   0.17735291     5.387955 
     427   -9950.2219     8.946884   -9904.5175    69.774302   0.64594454   0.58924137   0.17707384     5.434258 
     428   -9950.1212    8.7028364   -9906.8628    67.871041   0.61137461   0.59554317    0.1766968     5.476094 
     429   -9950.0955    9.0052001   -9908.3911    70.229093   0.58941216   0.60313066   0.17622156    5.5185699 
     430   -9950.0693    9.3309171    -9909.178     72.76927   0.57791918   0.61184632   0.17564844    5.5613379 
     431   -9949.9665    9.1293148   -9909.7615    71.197029   0.56822178   0.62092292   0.17498227    5.6093991 
     432    -9949.844     8.777203   -9909.9885    68.451006   0.56328029   0.62903226   0.17422013    5.6516662 
     433   -9949.7919    8.9297498   -9909.6455    69.640677   0.56739215   0.63530313   0.17336349    5.6959291 
     434   -9949.7786    9.3826766    -9909.584    73.172928   0.56807327    0.6402185   0.17241408     5.743443 
     435   -9949.7042    9.4153864   -9910.9628    73.428023   0.54753622   0.64521121   0.17137379     5.784054 
     436   -9949.5731    9.0312274    -9913.516    70.432072   0.50959857   0.65150552    0.1702481     5.825788 
     437   -9949.4872    8.9531424   -9915.6638    69.823109   0.47802931   0.65960126   0.16903547    5.8737221 
     438   -9949.4694    9.3773682   -9916.4045     73.13153   0.46730977   0.66951373   0.16773772     5.916487 
     439   -9949.4245    9.6365457   -9916.1158    75.152784   0.47075594   0.68078213   0.16635654     5.957978 
     440   -9949.3023     9.358332   -9915.3048    72.983071   0.48048887   0.69217466   0.16489354    5.9986022 
     441   -9949.1862    9.1177314   -9913.7799    71.106693   0.50040132    0.7021039   0.16335101    6.0410521 
     442   -9949.1482    9.4478788     -9911.66    73.681423   0.52982526   0.70985387   0.16172979    6.0947421 
     443   -9949.1245    9.9152147   -9910.1832    77.326048   0.55036093   0.71624234   0.16003167     6.136461 
     444   -9949.0246    9.8625392   -9910.4449    76.915245   0.54525073   0.72293342   0.15825861    6.1808372 
     445   -9948.8887    9.5427294   -9911.8346    74.421137   0.52368837   0.73126398   0.15641286    6.2229981 
     446   -9948.8176    9.6821302   -9912.7325    75.508285   0.50999412   0.74178009   0.15449419    6.2647521 
     447   -9948.7991    10.220089   -9912.4648    79.703681   0.51351539   0.75434455   0.15250803     6.309005 
     448   -9948.7285    10.404789   -9911.5537    81.144105   0.52539508   0.76798711   0.15045757    6.3513331 
     449   -9948.5894    10.083437   -9910.2837    78.637964   0.54137817   0.78087973   0.14834641     6.392657 
     450   -9948.4826    9.9580464   -9908.3334     77.66008    0.5674328   0.79122179   0.14617856    6.4330831 
     451   -9948.4523    10.361193   -9906.0544     80.80411   0.59921373   0.79856939   0.14395317    6.4732749 
     452   -9948.4096     10.66622   -9904.8511    83.182933   0.61561653   0.80422974   0.14168013    6.5219162 
     453   -9948.2853    10.361862    -9905.505    80.809331   0.60461754    0.8102441   0.13936468    6.5705111 
     454   -9948.1511    9.9374503   -9906.9872    77.499457   0.58177238   0.81814862   0.13701227    6.6128001 
     455   -9948.0961    10.045909   -9907.7234    78.345293   0.57059142   0.82846794   0.13462843      6.65465 
     456   -9948.0723    10.387398   -9907.3952    81.008473   0.57489366   0.84064844   0.13258627    6.6963592 
     457    -9947.978    10.243035   -9906.6332    79.882632   0.58433056   0.85300135   0.13369595    6.7424102 
     458   -9947.8339    9.7414251   -9905.5593     75.97071   0.59747029   0.86309497   0.13476564    6.7829192 
     459   -9947.7475    9.6626348   -9903.9206    75.356246   0.61940951   0.86908058   0.13579516     6.825201 
     460   -9947.7276    10.108956   -9902.4421    78.836982   0.64002347   0.87098481   0.13678476     6.871743 
     461   -9947.6679    10.337439   -9902.6281    80.618859   0.63655154   0.87065975   0.13773222     6.917989 
     462   -9947.5305    10.046601    -9904.829    78.350689   0.60350369   0.87047685   0.13864107    6.9567451 
     463   -9947.4108    9.8963652   -9907.5646    77.179045   0.56315014   0.87200451   0.13951183    6.9983501 
     464    -9947.373    10.356452   -9909.2623    80.767138   0.53862247   0.87553962   0.14034455    7.0585091 
     465    -9947.338    10.872124   -9909.7613    84.788718   0.53107581   0.88007885   0.14113867    7.1055491 
     466   -9947.2191    10.797265   -9909.5129    84.204919   0.53290424   0.88344596    0.1418821    7.1471422 
     467   -9947.0726    10.487403   -9908.3349    81.788387   0.54748279   0.88311541   0.14258431     7.189013 
     468   -9947.0002    10.666268   -9906.0561    83.183303   0.57866674   0.87768866   0.14324365     7.229506 
     469   -9946.9738    11.156408   -9903.7568    87.005778   0.61078968   0.86789831   0.14385852     7.272619 
     470   -9946.8841    11.174092   -9902.9731    87.143687   0.62059879    0.8560564   0.14442732    7.3194032 
     471   -9946.7297     10.68913   -9903.7045    83.361603   0.60807824   0.84449212   0.14493248    7.3614221 
     472   -9946.6209    10.495297   -9904.3691    81.849953   0.59714905   0.83447711   0.14538774    7.4018462 
     473   -9946.5901    10.862736   -9903.8339     84.71551   0.60427777   0.82607434   0.14579041     7.442137 
     474   -9946.5345    11.091144   -9902.4139    86.496797   0.62356067   0.81830413   0.14613721    7.4840741 
     475   -9946.3952     10.73832    -9900.633    83.745217   0.64676149   0.80934927   0.14642446    7.5261559 
     476    -9946.258    10.401238   -9898.2734    81.116408   0.67816997   0.79738493   0.14663839    7.5679901 
     477   -9946.2058    10.690124   -9895.4348    83.369352   0.71755111   0.78192358   0.14678565    7.6115081 
     478   -9946.1746    11.165674   -9893.4647    87.078035   0.74495373   0.76431225   0.14924913    7.6529601 
     479   -9946.0622    11.083177   -9893.6139    86.434663   0.74125667   0.74672384   0.15309453    7.6981711 
     480   -9945.9059    10.670152   -9895.2465      83.2136   0.71597371   0.73070264    0.1569007    7.7385421 
     481   -9945.8176    10.730028    -9896.488    83.680551   0.69717964   0.71675206    0.1606648    7.7814751 
     482   -9945.7912    11.250668   -9896.4135    87.740881   0.69785937   0.70480639   0.16438422     7.823154 
     483   -9945.7114    11.423855   -9895.4719    89.091518   0.71003961   0.69438612   0.16805706     7.865283 
     484   -9945.5543    11.048543   -9893.9865    86.164568   0.72881253   0.68446236   0.17168148     7.912173 
     485   -9945.4284     10.89049   -9891.6552    84.931955   0.75998072   0.67401156   0.17525532     7.953212 
     486   -9945.3879    11.366099   -9888.9033    88.641096   0.79830198   0.66305021   0.17878105     7.993022 
     487   -9945.3382    11.820368   -9887.3356    92.183817    0.8197551   0.65269366   0.18224955    8.0328882 
     488   -9945.1981    11.655155   -9887.9202    90.895366   0.80951364   0.64399162   0.18565647    8.0852611 
     489    -9945.042    11.362061   -9889.5571    88.609609   0.78417341   0.63706415   0.18899738    8.1293452 
     490   -9944.9701    11.668184   -9890.3873    90.996973   0.77142456   0.63158165   0.19226828    8.1679602 
     491   -9944.9358    12.265896   -9889.8585    95.658367   0.77841127   0.62746483   0.19547121    8.2090142 
     492   -9944.8251    12.326258   -9888.5221    96.129118   0.79573622   0.62452644   0.19859809    8.2509382 
     493   -9944.6544    11.918777    -9886.463     92.95128   0.82242403   0.62194478   0.20164648    8.2945731 
     494    -9944.542    11.880947   -9883.3674    92.656259   0.86458555    0.6187983   0.20461376     8.335027 
     495   -9944.5056    12.357672   -9880.0287    96.374105   0.91125893   0.61505448   0.20749694    8.3773432 
     496    -9944.429    12.539552   -9878.2113     97.79254   0.93586055   0.61142648   0.21029247    8.4180701 
     497   -9944.2654    12.062215   -9878.5305    94.069916   0.92903731   0.60823909   0.21299708     8.459229 
     498   -9944.1178    11.653296   -9879.5758    90.880868   0.91217735   0.60511804   0.21560784    8.5013092 
     499   -9944.0624    11.899665   -9879.7546    92.802235   0.90886758   0.60178479   0.21812277     8.542835 
     500   -9944.0169    12.259742    -9879.015    95.610377   0.91867748   0.59845171   0.22054089    8.5948272 
     501   -9943.8817    12.029799   -9878.0155    93.817112   0.93089236   0.59508383   0.22285258    8.6361542 
     502   -9943.7134    11.591239   -9876.6932    90.396904   0.94720231   0.59089453   0.22506728     8.676897 
     503   -9943.6265    11.773109    -9874.889    91.815253   0.97147377   0.58519752   0.22718494    8.7153001 
     504   -9943.5942     12.42009   -9873.7464    96.860881   0.98716518   0.57832873   0.22920505    8.7538052 
     505   -9943.4944    12.644895   -9874.9208    98.614078   0.96915773   0.57115461   0.23112668     8.792295 
     506   -9943.3187    12.340641   -9878.3615    96.241285   0.91804621   0.56393116   0.23293504    8.8307531 
     507   -9943.1882    12.340627   -9882.1489    96.241175   0.86267437   0.55631573   0.23464304     8.869159 
     508   -9943.1432    12.949201   -9884.7465    100.98728   0.82532696   0.54839174   0.23625049    8.9080081 
     509   -9943.0727      13.3851   -9886.2288    104.38673   0.80338077   0.54079279   0.23775774    8.9466012 
     510   -9942.9073    13.111144   -9887.0066    102.25023   0.79004966   0.53367213    0.2391653     8.985281 
     511   -9942.7386    12.757985   -9886.7508    99.496033   0.79128047   0.52637873   0.24046423    9.0238121 
     512   -9942.6634    13.035239   -9885.5262    101.65827   0.80752545   0.51852763   0.24166321     9.068809 
     513   -9942.6157    13.508336   -9884.8753    105.34782   0.81604995   0.51076672   0.24276096     9.113802 
     514   -9942.4807    13.356937   -9886.3586     104.1671   0.79317926   0.50387167   0.24375558    9.1525671 
     515   -9942.2956    12.808914   -9889.4665    99.893219   0.74663861   0.49771467   0.24464502    9.1911981 
     516   -9942.1838    12.766751   -9892.1863    99.564403   0.70661892   0.49186731   0.24542654     9.229701 
     517   -9942.1438    13.259182   -9893.3917    103.40474   0.68901834   0.48668785   0.24610018    9.2682002 
     518   -9942.0495    13.397273   -9893.4412    104.48167   0.68698446   0.48292234   0.24666569     9.306684 
     519   -9941.8682    12.915152   -9892.5818    100.72174   0.69656872   0.48034288   0.24712332    9.3451631 
     520   -9941.7188    12.634479    -9890.411    98.532849   0.72513775   0.48019118   0.24747342    9.3841162 
     521    -9941.664    13.045206   -9887.3764      101.736   0.76725164   0.48376585    0.2477246     9.422574 
     522   -9941.6032     13.45258   -9885.3604    104.91299   0.79488467   0.48585327   0.24786834     9.461122 
     523   -9941.4442    13.178547   -9885.6903    102.77588   0.78797494   0.48723522   0.24790456    9.4996471 
     524   -9941.2639    12.744111   -9887.4139    99.387835    0.7610658   0.48857287   0.24783364    9.5381951 
     525   -9941.1761    12.982689   -9888.6042    101.24844    0.7430037   0.49009437   0.24765685     9.593883 
     526   -9941.1336     13.60868   -9888.6362    106.13037   0.74195019   0.49151555   0.24739227     9.635896 
     527   -9941.0099    13.712479   -9888.0737    106.93987   0.74815257   0.49215312   0.24702739     9.677181 
     528   -9940.8166    13.334858   -9886.9711    103.99491   0.76100346   0.49118641   0.24656581    9.7185261 
     529   -9940.6847    13.391123   -9884.9238    104.43371   0.78807462   0.48806267   0.24601094    9.7597611 
     530   -9940.6375    14.067238   -9882.7409    109.70654   0.81825687   0.48281983    0.2453656     9.801033 
     531   -9940.5487    14.465096   -9882.3742    112.80933   0.82218566   0.48814627   0.24464864    9.8422101 
     532   -9940.3615    14.123275   -9884.5651    110.14356   0.78857623   0.49787453   0.24395077    9.8851981 
     533   -9940.1865    13.797274   -9887.7399    107.60117   0.74123347   0.50455077   0.24722188    9.9263391 
     534   -9940.1119    14.144055   -9889.9663    110.30562   0.70871113   0.50791653   0.25043383     9.965867 
     535   -9940.0515    14.583483    -9890.944    113.73259   0.69404084   0.50876721   0.25358372    10.004384 
     536   -9939.8926    14.312416   -9891.2235    111.61862   0.68784376   0.50795387    0.2566598     10.04306 
     537   -9939.6934    13.719785   -9890.6505    106.99685   0.69312839   0.50567913   0.25966847    10.092984 
     538   -9939.5822    13.746946   -9889.0331    107.20867   0.71441474   0.50190062   0.26260678    10.135238 
     539   -9939.5366    14.284068   -9887.7168    111.39754   0.73237396   0.49687777   0.26547117    10.175123 
     540   -9939.4206    14.375764   -9888.7424    112.11265   0.71623871   0.49071329   0.26825731    10.217308 
     541   -9939.2201    13.887579   -9892.3244    108.30543    0.6627814   0.49215342   0.27095543    10.269239 
     542   -9939.0675    13.748505    -9896.501    107.22083   0.60159645   0.51103256   0.27356499    10.318253 
     543   -9939.0123    14.340298   -9899.5515    111.83607    0.5577031   0.52984125   0.27608074    10.368315 
     544   -9938.9334    14.817452   -9901.4481    115.55726   0.52978241   0.54897207   0.27849769     10.41804 
     545    -9938.749    14.546507   -9902.5468    113.44423   0.51164932   0.56890414   0.28081113    10.472207 
     546   -9938.5569    14.185822   -9902.3978    110.63134   0.51103993    0.5898873   0.28301434    10.528062 
     547   -9938.4671    14.535097    -9901.007    113.35525   0.52942729   0.61188757   0.28510454    10.576294 
     548   -9938.4105     15.14056    -9900.107    118.07708   0.54134693   0.63447743   0.28707639    10.624554 
     549   -9938.2584    15.074673   -9901.5958    117.56325   0.51815497    0.6567337   0.28892411     10.67061 
     550   -9938.0458    14.550399   -9905.1345    113.47458   0.46513785   0.67748631   0.29064176    10.724262 
     551   -9937.9113    14.572571   -9908.6162     113.6475   0.41403062    0.6959527   0.29222388    10.779258 
     552   -9937.8587    15.215729   -9910.7906    118.66331   0.38255628   0.71224806   0.29366538    10.826551 
     553   -9937.7486    15.503798   -9911.9869    120.90988    0.3640915   0.72724457   0.29496213    10.873288 
     554   -9937.5393    15.104698   -9912.3996    117.79741   0.35530175    0.7420015    0.2961107    10.924137 
     555   -9937.3603    14.908239   -9911.4552    116.26528   0.36611908   0.75720953   0.29710803    10.976669 
     556   -9937.2869    15.477898   -9909.4861     120.7079   0.39291004   0.77285947   0.29795348    11.033311 
     557   -9937.2103    16.051855   -9908.4765    125.18402   0.40609767   0.78812474   0.29864151    11.084009 
     558    -9937.024    15.835392   -9909.8818    123.49589   0.38360311   0.80152725   0.29916888    11.137321 
     559   -9936.8098    15.361438   -9912.6496    119.79965   0.34145884   0.81158978    0.2995328    11.186249 
     560   -9936.6963    15.564078   -9914.5505    121.37998   0.31298803   0.81767761   0.29973139    11.239764 
     561   -9936.6369     16.16275   -9914.7384    126.04886   0.30949418   0.82040456   0.29976463     11.28831 
     562     -9936.49     16.15554   -9913.7209    125.99263   0.32179875   0.82128396   0.29963261    11.333099 
     563   -9936.2645    15.573252   -9911.5054    121.45154   0.34992264   0.82190978   0.29933703    11.382093 
     564   -9936.1054    15.452683   -9907.6287    120.51125   0.40246329   0.82322609   0.29888019     11.42215 
     565   -9936.0428    16.061264   -9903.0118    125.25741   0.46683005   0.82513758    0.2982645    11.462117 
     566   -9935.9393    16.441393   -9899.9464    128.22193   0.50869086   0.82649525   0.29749194    11.508274 
     567    -9935.727    16.071381   -9899.4473     125.3363   0.51274404   0.82555011   0.29656563    11.549755 
     568   -9935.5253    15.772275   -9899.9198    123.00366   0.50321618   0.82084646   0.29548888    11.591384 
     569    -9935.435    16.281752   -9899.2321    126.97693   0.51165896   0.81210194   0.29426608    11.638609 
     570   -9935.3625    16.954949   -9896.9514    132.22701   0.54286729   0.80043214   0.29290287    11.679932 
     571   -9935.1804    16.848106   -9893.5805    131.39377   0.58793609   0.78774873   0.29140598    11.719447 
     572   -9934.9489    16.324793   -9888.8639    127.31259   0.65132387   0.79798022   0.28978264    11.763814 
     573   -9934.8113    16.409944   -9882.5237    127.97667   0.73898505    0.8166655   0.28803995    11.805788 
     574   -9934.7473    17.007433   -9876.0836    132.63632   0.82909999   0.83101422   0.28618437    11.862597 
     575   -9934.6074    17.071449   -9872.0254    133.13556   0.88447753   0.84380289   0.28422158    11.912151 
     576   -9934.3725    16.444578   -9870.9605    128.24676   0.89620782   0.85773463   0.28215727     11.95843 
     577   -9934.1885    16.176209   -9871.0852    126.15383   0.89184518   0.87431091   0.27999618     12.00492 
     578   -9934.1142    16.750727   -9870.7421    130.63434   0.89564382   0.89357959   0.27774392    12.052794 
     579   -9934.0186    17.278409   -9870.0154    134.74959    0.9045634   0.91387641   0.27540668    12.106737 
     580   -9933.8064     17.05119   -9869.2919    132.97757   0.91178955   0.93192386   0.27299094    12.152979 
     581   -9933.5833    16.771011   -9867.9316    130.79253   0.92786126   0.94437324    0.2705026    12.201952 
     582    -9933.472    17.313438   -9865.6662    135.02277   0.95830507    0.9501206   0.26841923    12.247246 
     583   -9933.3988    18.164104   -9864.1064    141.65688   0.97931654   0.95122419   0.26853337    12.288681 
     584   -9933.2193    18.251175   -9865.1151    142.33592   0.96252332   0.95153405   0.26925651    12.330579 
     585    -9932.969      17.7562   -9868.1603    138.47575   0.91594825   0.95446395    0.2700819     12.37589 
     586   -9932.8025    17.776669   -9870.8008    138.63538   0.87627489    0.9616848   0.27083266    12.414862 
     587   -9932.7274    18.419334   -9871.5819    143.64734   0.86417389   0.97277265   0.27150626     12.45677 
     588   -9932.5907    18.624301   -9870.8844    145.24583   0.87210037   0.98515411   0.27210334    12.500137 
     589   -9932.3453    18.026539   -9869.0407    140.58405   0.89468912   0.99485719   0.27262451    12.541361 
     590   -9932.1323     17.62572   -9865.5629    137.45817   0.94083126    0.9986585   0.27307004    12.588466 
     591   -9932.0379    18.089759   -9860.9649    141.07708    1.0044815   0.99631675   0.27343751    12.637673 
     592   -9931.9436    18.621996   -9857.5929    145.22786    1.0508043    0.9908135   0.27372805    12.686499 
     593     -9931.73    18.359938   -9857.2438    143.18414    1.0527201   0.98640468   0.27394053    12.733038 
     594   -9931.4845    17.888551   -9858.9314    139.50792    1.0253988    0.9863454     0.274074    12.773151 
     595   -9931.3493    18.238119    -9860.309     142.2341    1.0040188   0.99180862   0.27412806    12.814208 
     596   -9931.2747    19.087957   -9860.4874    148.86175    1.0004435    1.0016607   0.27409767    12.940123 
     597   -9931.1034    19.286776   -9860.0212    150.41229    1.0046109    1.0126015   0.27398869    12.993805 
     598   -9930.8419    18.804945   -9858.8526    146.65462    1.0174319    1.0204013   0.27380173    13.037762 
     599     -9930.65    18.749882   -9856.3258     146.2252      1.05043    1.0223632   0.27353701    13.085029 
     600   -9930.5652    19.417639   -9853.2943    151.43286    1.0920766    1.0192119   0.27319417     13.12904 
     601   -9930.4365    19.756003   -9852.2147    154.07167     1.105516    1.0146167   0.27276679    13.171195 
     602   -9930.1871    19.181067   -9854.3109    149.58789    1.0723656    1.0128502   0.27225945    13.211365 
     603   -9929.9483    18.611653    -9858.033    145.14719    1.0163863    1.0166959   0.27167146    13.249957 
     604   -9929.8337    18.919752   -9861.2502    147.54997   0.96929694    1.0266275   0.27100269    13.288419 
     605   -9929.7432    19.462819   -9863.6631     151.7852   0.93391586    1.0406596   0.27025352    13.326946 
     606   -9929.5354    19.235466   -9865.9218    150.01214   0.89905651    1.0547494   0.26942228    13.365367 
     607   -9929.2721    18.649207   -9867.6806    145.44006   0.87047741    1.0645592   0.26851167    13.406591 
     608   -9929.1124    18.849557    -9868.365    147.00254   0.85854892    1.0681074   0.26752161    13.447947 
     609   -9929.0357    19.734724   -9869.2264    153.90571    0.8452908    1.0671524   0.26645152    13.489127 
     610   -9928.8759    20.106661   -9872.5292    156.80635   0.79635303    1.0660073   0.26530051    13.530691 
     611   -9928.6068    19.711983   -9878.4823    153.72836     0.708414     1.068943   0.26406897     13.57304 
     612   -9928.3889    19.648225    -9884.657    153.23113   0.61806646    1.0782589   0.26275585    13.611853 
     613   -9928.2907    20.425074   -9888.8454    159.28957   0.55748315    1.0935945   0.26136198    13.650679 
     614   -9928.1697    21.034109   -9890.9083    164.03926    0.5266186    1.1119039   0.25988895    13.689343 
     615   -9927.9188    20.653134   -9891.2218    161.06814   0.51864123     1.128353   0.25833877    13.729861 
     616   -9927.6528    20.049635   -9889.1466    156.36162   0.54421271    1.1386853   0.25671574    13.772537 
     617   -9927.5118    20.251848   -9884.5362    157.93862    0.6073768    1.1418768   0.25501903     13.81113 
     618   -9927.4189    20.783776   -9879.4382    162.08698   0.67811557    1.1408522   0.25324976    13.850493 
     619   -9927.2146    20.524737   -9876.3624    160.06681     0.718698    1.1406175   0.25222777    13.897718 
     620   -9926.9332     19.70809   -9875.2817    153.69801   0.72999492    1.1454713   0.25267105    13.938857 
     621   -9926.7459    19.582359   -9874.0224    152.71746   0.74514691    1.1572034   0.25305882    13.980746 
     622   -9926.6634    20.295419   -9871.3504    158.27842   0.78174269    1.1745376   0.25340088    14.023458 
     623   -9926.5158    20.655708   -9867.8716    161.08822   0.82882356    1.1934023   0.25369733    14.072151 
     624   -9926.2452    20.192439   -9863.9221    157.47531   0.88081878    1.2084681   0.25394724    14.124925 
     625   -9926.0058     19.95515    -9858.726    155.62476   0.95087192    1.2159815   0.25414915      14.1713 
     626   -9925.8956    20.666333   -9852.5185    161.17108    1.0370458    1.2161521   0.25428379    14.221172 
     627    -9925.786    21.424998   -9847.6756     167.0877    1.1039421    1.2130956   0.25436751    14.271446 
     628   -9925.5425    21.225969    -9846.202    165.53553     1.121326    1.2123559   0.25439887    14.321079 
     629    -9925.259    20.678649   -9847.1989    161.26713    1.1032303    1.2180578   0.25437603    14.364658 
     630   -9925.0968    20.947299   -9848.2789    163.36226    1.0856746    1.2313113    0.2542963    14.415428 
     631   -9925.0045    21.738674   -9848.5872    169.53397    1.0800134    1.2498608    0.2541386    14.464095 
     632   -9924.8085    21.819434    -9848.779     170.1638    1.0745315    1.2687833   0.25391556    14.510785 
     633   -9924.5119    21.177244   -9848.7176    165.15554    1.0712067    1.2826212   0.25362207    14.554582 
     634   -9924.2921    21.072539   -9847.4828    164.33897    1.0855529    1.2884642   0.25325338    14.602549 
     635    -9924.193    21.874161   -9845.7799     170.5906    1.1082196    1.2878617   0.25280582    14.653779 
     636   -9924.0474    22.421707    -9846.136    174.86076    1.1011288    1.2859574   0.25227559    14.704125 
     637   -9923.7665    22.031205   -9849.7806    171.81534    1.0456497    1.2885773   0.25500385    14.747462 
     638   -9923.4941    21.677985    -9854.861    169.06067   0.96999727    1.2994493    0.2586455    14.788066 
     639   -9923.3569    22.298836    -9858.817    173.90252   0.91214833    1.3188174   0.26224517    14.834092 
     640   -9923.2464    23.148039   -9861.0698    180.52523   0.87874655    1.3433068   0.26580295    14.878133 
     641   -9923.0027    23.066927   -9862.0789    179.89266   0.86104146    1.3671057   0.26932253    14.917558 
     642   -9922.6943    22.479793   -9861.2414    175.31376      0.86852    1.3847259   0.27279909    14.956446 
     643   -9922.4989    22.661219   -9857.8087    176.72865   0.91427301    1.3942235   0.27623166    14.998212 
     644   -9922.3966    23.532158   -9853.2656    183.52087   0.97703429    1.3985304    0.2796191    15.039017 
     645   -9922.2038    23.804838   -9850.4757    185.64742    1.0137399    1.4038376   0.28296011    15.089256 
     646    -9921.891    23.236636   -9850.2488    181.21617    1.0125263    1.4163061   0.28625517    15.130943 
     647   -9921.6365    23.078596   -9850.5479    179.98366    1.0047011    1.4391992   0.28950113    15.173053 
     648    -9921.516    23.927239   -9849.4807      186.602    1.0180809    1.4715025   0.29269687    15.213203 
     649   -9921.3713    24.687905   -9847.2225    192.53422    1.0479515    1.5080704   0.29584142     15.25402 
     650   -9921.0831    24.456182   -9844.2715    190.72708    1.0855854    1.5416703   0.29893408    15.292672 
     651   -9920.7771    24.068563   -9839.8325    187.70414    1.1439973     1.566644   0.30197167    15.386023 
     652   -9920.6068    24.630059   -9833.5998    192.08309    1.2296785    1.5821929   0.30495716    15.431253 
     653   -9920.4878    25.565253   -9827.7586    199.37641    1.3105501    1.5930321   0.30789115    15.472555 
     654    -9920.242    25.579736   -9825.0766    199.48937    1.3449802    1.6068933    0.3107746      15.5139 
     655   -9919.9086    24.884424   -9825.5454    194.06682    1.3336432    1.6305756    0.3136087     15.55857 
     656   -9919.6771     24.83225   -9826.7326    193.65993    1.3135924    1.6666575   0.31639011    15.612482 
     657   -9919.5601    25.585079   -9827.1395    199.53103    1.3061879     1.712068   0.31912487    15.654185 
     658   -9919.3714    25.848783   -9827.2294    201.58759    1.3022508    1.7590967   0.32181403    15.695801 
     659   -9919.0486    25.136536   -9827.1751    196.03297    1.2984556    1.7988991   0.32445838    15.737161 
     660   -9918.7626    24.636602   -9825.9999    192.13412    1.3110231    1.8261155    0.3270584    15.778485 
     661   -9918.6213    25.169336   -9823.9336    196.28877    1.3382303     1.841955   0.32961223    15.819084 
     662    -9918.482    25.769286   -9823.6073    200.96761    1.3408724    1.8537521   0.33212178    15.857811 
     663   -9918.1979    25.364846   -9827.2183     197.8135     1.285823    1.8712457    0.3345864    15.896757 
     664   -9917.8729    24.656003   -9833.6839    192.28542    1.1898502    1.9016616    0.3370049    15.935463 
     665   -9917.6828    24.926504   -9840.1879    194.39499     1.095242    1.9460172   0.33937551    15.974629 
     666   -9917.5703    25.831218   -9845.5303     201.4506    1.0181469    1.9982924   0.34169711    16.013151 
     667   -9917.3422    25.987459   -9850.1191    202.66909   0.95007034    2.0480241   0.34396576     16.05176 
     668   -9917.0032    25.359352   -9853.5277    197.77065   0.89710513    2.0854403   0.34617858    16.097108 
     669   -9916.7474     25.31084   -9854.5786    197.39232   0.87863735    2.1065416   0.34833267    16.135685 
     670   -9916.6235    26.231063   -9854.0437    204.56888   0.88444561    2.1153262   0.35042515    16.174193 
     671   -9916.4473    26.844193   -9854.8491    209.35052   0.87057256    2.1218694    0.3524554     16.21281 
     672   -9916.1234    26.399963   -9858.6085    205.88609   0.81286349    2.1372244    0.3544181    16.251886 
     673   -9915.8084    25.964442   -9863.5947    202.48958    0.7379404    2.1678021   0.35631044    16.292752 
     674   -9915.6421    26.567977   -9867.2526    207.19639   0.68389205    2.2119502   0.35812965    16.403122 
     675   -9915.5047    27.415354   -9869.0961    213.80485   0.65589812    2.2605027   0.35987309    16.442044 
     676   -9915.2238    27.266451   -9869.7178     212.6436   0.64313937    2.3011747   0.36153905    16.486639 
     677   -9914.8727     26.60281    -9868.542    207.46804   0.65479606    2.3246758   0.36312476    16.525234 
     678   -9914.6449    26.824158   -9864.8697    209.19427   0.70347804    2.3294563   0.36462898    16.570295 
     679   -9914.5192    27.839797   -9860.4557    217.11496   0.76408554     2.322585   0.36605111    16.616434 
     680   -9914.2955    28.218339   -9858.5411     220.0671   0.78798137    2.3162992   0.36739104    16.657831 
     681   -9913.9401    27.650601   -9860.0136    215.63947   0.76214791    2.3219486    0.3686487    16.698768 
     682   -9913.6457    27.471933   -9862.4831    214.24609   0.72308526    2.3443784    0.3698247    16.737563 
     683   -9913.4979    28.333806   -9863.5666     220.9676   0.70568319    2.3795567   0.37091937     16.78528 
     684    -9913.326    29.052574    -9863.112    226.57308   0.70967823     2.416632   0.37193305    16.829636 
     685   -9912.9978    28.639609   -9861.4154    223.35248   0.72901926     2.443376    0.3728661    16.883009 
     686   -9912.6498    28.007141   -9857.5092    218.42003   0.77930717     2.452298   0.37371853    16.924764 
     687   -9912.4512    28.388075   -9851.0764    221.39083   0.86741543    2.4444136   0.37449172    16.963765 
     688   -9912.3119    29.197993   -9844.5913    227.70716   0.95710088    2.4288094   0.37518645    17.002346 
     689   -9912.0373    29.050808   -9841.2085     226.5593    1.0010288     2.418262   0.37580338    17.041171 
     690   -9911.6673    28.183489   -9841.0195    219.79532   0.99847202    2.4230912   0.37634269    17.086445 
     691   -9911.4077    28.082515   -9841.3577    219.00786   0.99002348    2.4462455   0.37680209    17.125094 
     692   -9911.2756    28.934103    -9840.462    225.64915    1.0008161    2.4819443    0.3771821    17.166499 
     693   -9911.0671    29.304068   -9838.6684    228.53441    1.0232174     2.518483    0.3774809    17.205026 
     694   -9910.7097    28.611557   -9836.0217    223.13371    1.0555723    2.5438589   0.37769643    17.243484 
     695   -9910.3885    28.126542   -9831.3551    219.35121     1.116986    2.5515569   0.37782676     17.28289 
     696   -9910.2245    28.764153   -9824.8894    224.32376    1.2060494    2.5437061   0.37786679    17.323896 
     697    -9910.066    29.488044   -9819.5976    229.96919    1.2785972    2.5300343    0.3778188     17.36778 
     698     -9909.75    29.098082   -9818.1253    226.92798      1.29494    2.5231211   0.37768198    17.407679 
     699   -9909.3849    28.312435   -9819.5672    220.80094    1.2694027    2.5322162   0.37745556    17.446132 
     700   -9909.1648    28.535315   -9821.0364    222.53912    1.2455273    2.5586234   0.37713865    17.484692 
     701   -9909.0317     29.43672   -9821.3119    229.56893    1.2397516    2.5949128   0.37672562    17.523541 
     702   -9908.7766    29.530146   -9820.9384    230.29753    1.2414254    2.6283998    0.3762203    17.566189 
     703   -9908.3994    28.760145   -9819.6086     224.2925    1.2548873    2.6473107   0.37562256    17.607409 
     704   -9908.1108    28.615721   -9816.1968    223.16618     1.299029    2.6465918   0.37493328    17.649077 
     705   -9907.9681    29.558137   -9811.6518    230.51583     1.361247    2.6304636   0.37415447    17.690546 
     706   -9907.7739    30.206155   -9809.2671    235.56954     1.392205    2.6103937   0.37328648     17.73273 
     707   -9907.4186    29.695521   -9810.8839    231.58724    1.3643333    2.5994675    0.3723354    17.779227 
     708   -9907.0684    29.145477   -9814.6016     227.2976    1.3068426    2.6059389   0.37130479     17.82659 
     709    -9906.879    29.697046   -9817.4586    231.59914    1.2637877    2.6291407   0.37019793    17.868131 
     710   -9906.7268    30.518044    -9818.705    238.00188    1.2440202    2.6597772   0.36901776    17.912636 
     711   -9906.4206    30.234705   -9818.8634     235.7922    1.2374539     2.684479   0.36776623    17.953943 
     712   -9906.0344    29.321315   -9817.2935    228.66892    1.2541835    2.6924229   0.36644728    17.995664 
     713   -9905.7796    29.315799   -9813.2443     228.6259    1.3078092    2.6807104   0.36506453    18.054656 
     714   -9905.6405    30.200779   -9808.6418    235.52761    1.3708913    2.6558451   0.36362211    18.093526 
     715   -9905.4013    30.473343   -9807.1122    237.65327    1.3891292    2.6305362   0.36212442    18.132117 
     716   -9905.0188    29.788112   -9809.7939    232.30934    1.3458221    2.6174152   0.36057181    18.172591 
     717   -9904.6975    29.593014   -9814.1565    230.78782    1.2796234    2.6227956    0.3589713    18.214057 
     718   -9904.5356    30.644637   -9817.5069    238.98915    1.2299838    2.6435258   0.35732569    18.259207 
     719   -9904.3522     31.68547   -9819.4987    247.10631    1.1992422    2.6685047    0.3556373    18.300786 
     720   -9903.9989    31.582039   -9820.3346    246.29969     1.182435    2.6841136   0.35390853    18.346712 
     721   -9903.6149    31.244088   -9818.8761     243.6641    1.1976202    2.6809076   0.35233969    18.386341 
     722   -9903.3873    32.002212   -9814.6296     249.5765    1.2544203     2.658262   0.35246648    18.433599 
     723   -9903.2263    33.253876   -9810.1189    259.33789    1.3158963    2.6246679   0.35245287    18.473672 
     724   -9902.9208    33.459234   -9808.7209    260.93942    1.3313359    2.5935276   0.35230283    18.519436 
     725   -9902.5052    32.781162   -9810.5731    255.65131    1.2992842    2.5765649   0.35201937    18.560469 
     726   -9902.2009     32.80104   -9812.7687    255.80634    1.2639528    2.5781301    0.3516108    18.669391 
     727   -9902.0349    33.785908   -9813.3311    263.48706    1.2536592    2.5931467   0.35107233    18.710451 
     728   -9901.7917    34.242061   -9812.6841    267.04447     1.259366     2.609677   0.35040463    18.756301 
     729   -9901.3856    33.541433   -9811.1157    261.58046    1.2757925    2.6147838   0.34960767    18.796109 
     730   -9901.0136    33.073733   -9807.6469      257.933    1.3195602    2.6008711   0.34868079    18.841659 
     731   -9900.8142    33.898089   -9802.6738    264.36192     1.387027    2.5694263    0.3476241    18.883089 
     732    -9900.628    34.931356   -9799.4745    272.42009    1.4296112    2.5303155   0.34643422    18.923144 
     733   -9900.2715    34.812302   -9800.9116    271.49162    1.4042627    2.4970423   0.34822488    18.961728 
     734   -9899.8536    34.229759   -9805.8816    266.94853    1.3281149    2.4802812   0.35134665    19.000623 
     735   -9899.5878    34.692401   -9810.9313    270.55654    1.2529911    2.4828316   0.35440552    19.039534 
     736    -9899.421     35.86926   -9814.3365    279.73454    1.2025067    2.4983407   0.35739959    19.084264 
     737   -9899.1239    36.116108   -9816.4236    281.65964    1.1688098    2.5143408   0.36032547    19.126824 
     738    -9898.689    35.301135   -9816.7836     275.3039    1.1575765    2.5182465   0.36318184    19.170444 
     739   -9898.3444    35.041187   -9814.2063    273.27663    1.1891323    2.5034612   0.36596708    19.208902 
     740   -9898.1619    35.923007   -9809.8019    280.15371       1.2488    2.4726304   0.36867857    19.247375 
     741   -9897.9315    36.512474    -9807.372     284.7508    1.2798861    2.4363856   0.37130997      19.2857 
     742   -9897.5263    35.869477   -9809.2464    279.73624    1.2476671    2.4081451   0.37385927     19.33041 
     743   -9897.1214    35.222934      -9813.6    274.69403    1.1804162    2.3975668   0.37632214    19.368974 
     744   -9896.8934    35.887293     -9817.24    279.87518    1.1257489    2.4057766   0.37869559    19.407552 
     745   -9896.7136    37.001758   -9819.2471    288.56659    1.0948404    2.4246856   0.38097857    19.446167 
     746   -9896.3658    37.010632   -9820.0735     288.6358    1.0782454    2.4407919   0.38316668    19.484719 
     747   -9895.9224    36.341238   -9818.8617    283.41538    1.0891061    2.4417046    0.3852673    19.590712 
     748   -9895.6169    36.654029    -9814.531    285.85474    1.1459944    2.4222744   0.38728256    19.632122 
     749   -9895.4422    37.946283    -9808.965    295.93268    1.2221899     2.387197   0.38921404    19.673506 
     750   -9895.1608    38.525109   -9806.1101    300.44679    1.2585619    2.3487604   0.39106265    19.720429 
     751   -9894.7151    37.917394   -9807.3722    295.70738    1.2344262    2.3208396   0.39282238    19.762496 
     752   -9894.3309    37.679387   -9810.1456    293.85123    1.1897985    2.3120894   0.39450203    19.805062 
     753   -9894.1251    38.690819   -9811.5387    301.73912    1.1672017    2.3217023   0.39610507    19.847702 
     754    -9893.904    39.598517   -9811.2354      308.818    1.1683632     2.339756   0.39763697     19.89012 
     755   -9893.4969    39.123748   -9809.5658    305.11541    1.1862054    2.3520414    0.3991048    19.931552 
     756    -9893.052    38.262415   -9805.3424    298.39811    1.2396078    2.3470539   0.40051094    19.973577 
     757    -9892.784    38.559441   -9798.0163    300.71454    1.3393605      2.32171   0.40186799    20.015296 
     758   -9892.6007    39.433908   -9790.4044    307.53426    1.4443495    2.2829346   0.40318206    20.057077 
     759   -9892.2643    39.190941   -9786.4137    305.63943    1.4959967    2.2443027   0.40445816    20.102444 
     760   -9891.8032    37.983984   -9786.4373     296.2267    1.4891466    2.2194104   0.40570085    20.141075 
     761   -9891.4653    37.595255   -9787.3744    293.19511    1.4711256    2.2152423   0.40691308    20.179981 
     762   -9891.2883    38.395277   -9786.9595    299.43427    1.4744883    2.2287796   0.40810268    20.218307 
     763   -9891.0332     38.73889   -9785.4859      302.114    1.4917103    2.2484443   0.40927635    20.256758 
     764    -9890.596     37.85942   -9783.0803    295.25526    1.5195284    2.2597361   0.41044083    20.295009 
     765   -9890.1887    37.256251   -9778.4047    290.55131    1.5798528    2.2523329   0.41160185    20.333608 
     766   -9889.9724    38.148769    -9771.662    297.51181    1.6720922    2.2251753    0.4127609    20.372125 
     767   -9889.7763    39.382362    -9766.419    307.13227    1.7434196    2.1870291   0.41392215    20.410718 
     768   -9889.3911    39.419736   -9766.0416    307.42374    1.7433088     2.152176   0.41508575    20.449199 
     769   -9888.9308    38.978051   -9769.5979    303.97916    1.6865424    2.1334166   0.41625099    20.487613 
     770   -9888.6354    39.738472   -9773.4568    309.90947    1.6278289     2.135795   0.41741711    20.526216 
     771   -9888.4529    41.355325    -9775.766    322.51887     1.592614    2.1540939   0.41857911    20.566025 
     772   -9888.1275    41.959303   -9776.8931    327.22912    1.5720863    2.1753522   0.41974096    20.612309 
     773   -9887.6426    41.319391   -9776.3296    322.23863    1.5731966    2.1851587   0.42090153    20.655496 
     774   -9887.2518    41.197162   -9772.5971     321.2854    1.6204242    2.1747408   0.42205828    20.697796 
     775   -9887.0422    42.271264   -9766.7765    329.66202    1.6997265    2.1453098   0.42320675    20.736461 
     776   -9886.7833    42.960068   -9763.0744    335.03382    1.7483887    2.1074722   0.42433652    20.774972 
     777   -9886.3296    42.185092   -9764.2641       328.99    1.7251627    2.0760292   0.42544443    20.813326 
     778   -9885.8737    41.284705    -9768.584    321.96813    1.6576664    2.0626936   0.42652298    20.851754 
     779   -9885.6141    41.748832   -9772.6982    325.58772    1.5958503    2.0703985   0.42756514    20.890521 
     780   -9885.4124    42.690238   -9775.6695    332.92949    1.5510077    2.0919093   0.42856465    20.929127 
     781   -9885.0311    42.429691   -9777.9803    330.89755    1.5129582    2.1133822   0.42951417     20.96745 
     782   -9884.5468     41.43426   -9778.5797    323.13446    1.4976418    2.1212369    0.4304093    21.005768 
     783   -9884.2153    41.513818   -9776.0673    323.75491    1.5284655    2.1088836   0.43124379     21.04447 
     784   -9884.0276    42.658154   -9772.2048    332.67928    1.5804008    2.0800623   0.43201062     21.08913 
     785   -9883.7273    43.003269   -9771.0357    335.37073    1.5926808    2.0470244    0.4327024    21.127688 
     786   -9883.2486    42.011539   -9773.9044     327.6365    1.5453707     2.024474   0.43331117    21.223319 
     787   -9882.8354    41.370713   -9777.9245    322.63887    1.4827152    2.0223962   0.43393761    21.261774 
     788    -9882.616    42.080557   -9780.0332    328.17476    1.4498119    2.0411444   0.43756363    21.300225 
     789   -9882.3835    42.753954   -9780.0877     333.4264    1.4457557     2.071253   0.44101347    21.338837 
     790   -9881.9544     42.07011   -9778.7464    328.09328    1.4586484        2.098   0.44428352    21.377329 
     791   -9881.4849    41.129566   -9775.0352    320.75824    1.5044627    2.1086044   0.44739819    21.421548 
     792   -9881.2029    41.613863   -9768.5416    324.53514    1.5922533    2.0985894   0.45032657    21.460287 
     793   -9881.0115    42.922729   -9762.3012    334.74262    1.6777427    2.0740067   0.45306586    21.506692 
     794   -9880.6555    43.227995    -9760.403    337.12331    1.6995395    2.0484389   0.45561356    21.548043 
     795   -9880.1619    42.627837   -9763.1267    332.44284    1.6540685    2.0362382   0.45796731     21.58827 
     796   -9879.7924    42.946293   -9766.9797    334.92639    1.5943921    2.0453902   0.46013568    21.626755 
     797   -9879.5898     44.51422   -9769.3317    347.15423    1.5582884     2.073506    0.4621051    21.666699 
     798   -9879.3021    45.506241   -9770.3225    354.89073    1.5402177    2.1088603    0.4638727    21.710719 
     799   -9878.8163    45.008757   -9769.9708    351.01099    1.5383226    2.1360549   0.46543543    21.749176 
     800   -9878.3556    44.538639   -9766.7722    347.34466    1.5770188    2.1435898    0.4667903    21.789619 
     801   -9878.0945    45.390308   -9760.8827     353.9866    1.6565661    2.1295885   0.46793928    21.830611 
     802   -9877.8583    46.398392   -9756.1447    361.84837    1.7201891    2.1027548   0.46887564     21.88421 
     803   -9877.4269    45.990085   -9756.4002    358.66409     1.710482    2.0780594   0.46959793    21.926281 
     804   -9876.9174    44.977252   -9761.0975    350.76529    1.6368932    2.0693301   0.47010537    21.980211 
     805   -9876.5844    45.238551   -9766.8135    352.80308    1.5514029    2.0824664   0.47039773    22.019737 
     806   -9876.3788    46.543947   -9771.8784    362.98351    1.4769148    2.1125985   0.47049739     22.07014 
     807   -9876.0325    46.997076   -9776.8039    366.51734    1.4024062    2.1465094   0.47038278    22.109011 
     808   -9875.5199     46.33029   -9780.9772    361.31726    1.3361808    2.1691613   0.47005497    22.147507 
     809   -9875.1028    46.343441   -9782.4567    361.41982    1.3093755    2.1711524   0.46951564    22.247503 
     810   -9874.8761    47.722334   -9781.7215    372.17343    1.3165622    2.1534257   0.46876721    22.286434 
     811      -9874.6    48.761468   -9782.4849    380.27735     1.301872    2.1268581   0.46785336    22.328105 
     812   -9874.1163    48.223994   -9787.1128    376.08574    1.2296278    2.1069492    0.4667372     22.37575 
     813   -9873.6216    47.423211   -9793.4091    369.84066    1.1336506    2.1063056   0.46542284    22.416726 
     814    -9873.329    47.919756   -9797.6584    373.71307    1.0694605    2.1285979    0.4639145    22.455391 
     815   -9873.1027    48.822266   -9798.8606     380.7515    1.0492707    2.1668128   0.46221627    22.494089 
     816   -9872.6906    48.367719   -9797.7532    377.20661    1.0590965    2.2065853   0.46036091    22.534539 
     817   -9872.1655    47.041026   -9793.6135    366.86009    1.1101816    2.2331011   0.45832285    22.581153 
     818   -9871.7975    46.829431   -9785.3127    365.20992    1.2222983     2.238329   0.45610541     22.62152 
     819   -9871.5891    47.872227   -9774.9816    373.34241    1.3653627    2.2249833   0.45371182    22.660401 
     820   -9871.2706    48.283304   -9767.2057    376.54828    1.4707586    2.2051879   0.45114521    22.700469 
     821   -9870.7642    47.444478   -9763.8315     370.0065    1.5112899    2.1944872   0.44840633    22.742094 
     822   -9870.3186    47.068123   -9762.1539    367.07142    1.5287011    2.2041557   0.44550032    22.783512 
     823    -9870.075    48.206064   -9759.0611     375.9459    1.5689687    2.2355883   0.44242944    22.825122 
     824   -9869.8225    49.386656   -9754.3684    385.15302    1.6317243    2.2794396   0.43919542    22.864806 
     825   -9869.3632    49.117314   -9748.6914     383.0525    1.7054648    2.3200279   0.43579964    22.905416 
     826   -9868.8504    48.440136   -9740.8494    377.77137    1.8090498    2.3429778   0.43220838    22.947911 
     827   -9868.5299    49.096057   -9730.1804    382.88672    1.9553054    2.3423369   0.42845867    22.988536 
     828   -9868.3099     50.47245   -9719.7413    393.62083    2.0997346    2.3235718   0.42455258    23.040158 
     829   -9867.9197    50.616942   -9713.9988    394.74769    2.1753785    2.3008474   0.42049297    23.087392 
     830   -9867.3816    49.598058   -9713.6654    386.80169    2.1724845    2.2899681   0.41628351    23.127615 
     831   -9866.9675    49.422664   -9715.4766    385.43384    2.1410349    2.3005406   0.41187871    23.167343 
     832   -9866.7381    50.611407   -9716.9957    394.70452    2.1163239    2.3312206   0.40733441    23.207953 
     833   -9866.4303    51.365717   -9718.6073    400.58718    2.0891959    2.3703869   0.40265611    23.246572 
     834   -9865.9163    50.744104   -9720.4475    395.73939    2.0559229    2.4018698   0.39784997      23.2862 
     835    -9865.428    50.335987   -9720.7942     392.5566    2.0441235    2.4129839   0.39292314     23.32555 
     836   -9865.1511    51.508828   -9719.3768    401.70326    2.0602407    2.4008808   0.38785125    23.371989 
     837   -9864.9042    52.982462   -9719.6672    413.19573    2.0526482    2.3739625   0.38267815    23.424152 
     838   -9864.4488    52.969266   -9725.1043    413.09282    1.9693691     2.347681   0.37741551    23.464514 
     839   -9863.9047    52.182532   -9734.5014     406.9573     1.828868    2.3368535    0.3720762    23.505062 
     840    -9863.543    52.512284   -9743.6583    409.52894    1.6943412    2.3484213   0.36667377    23.551585 
     841   -9863.3152    53.679328   -9750.3573     418.6304    1.5964441    2.3781575   0.36160449    23.597716 
     842   -9862.9378    53.697841   -9754.9601    418.77477     1.526058    2.4127689    0.3581562    23.640903 
     843   -9862.3848    52.369656   -9757.0026    408.41662    1.4893767    2.4364566   0.35895535    23.689291 
     844   -9861.9364    51.735491   -9754.9767    403.47094    1.5116722    2.4387633   0.36211965    23.735632 
     845   -9861.6956    52.661873   -9750.1767    410.69555    1.5761064      2.41984   0.36530109    23.777644 
     846    -9861.409    53.443552   -9747.3594    416.79164    1.6118741    2.3904072   0.36850834    23.829029 
     847   -9860.9075    52.814062   -9749.6612    411.88242     1.572254      2.36636   0.37172316     23.87031 
     848   -9860.3953    52.148548   -9755.0341    406.69226    1.4890792    2.3609464   0.37494141    23.911659 
     849   -9860.0953    53.048115   -9759.4618    413.70774    1.4222625    2.3783042   0.37815955    23.950807 
     850   -9859.8607     54.51652   -9761.5302    425.15943    1.3897143    2.4114468   0.38137446      23.9896 
     851   -9859.4266    54.646685   -9761.5847    426.17455    1.3828085    2.4456044   0.38458278    24.097474 
     852   -9858.8707    53.895414   -9758.5257     420.3156    1.4181862    2.4654079   0.38808464    24.138002 
     853   -9858.4781     54.26311    -9751.062    423.18315    1.5181226    2.4625889   0.39360022    24.180517 
     854   -9858.2478    55.780159   -9741.5788     435.0142    1.6488935    2.4401889   0.39899825    24.218943 
     855   -9857.8943    56.398953   -9735.1516    439.84001    1.7347334    2.4110889   0.40427569    24.257744 
     856   -9857.3393    55.518467   -9733.9097    432.97334    1.7444414    2.3915891   0.40943009    24.296248 
     857   -9856.8518    55.050877   -9735.0798    429.32673    1.7210148     2.393359   0.41445537    24.337499 
     858   -9856.5832    56.173862   -9735.3542    438.08458    1.7133393    2.4176389   0.41934741    24.384172 
     859   -9856.3069     57.34567    -9734.384     447.2232    1.7231478    2.4545091   0.42410243    24.430186 
     860   -9855.8122    56.996106   -9732.5381    444.49704    1.7422451    2.4876109   0.42871673    24.471168 
     861   -9855.2638    56.239543   -9728.2609    438.59681    1.7949432    2.5021591   0.43319524    24.515375 
     862   -9854.9211    56.909824   -9720.6382    443.82415    1.8978329    2.4923873   0.43752385    24.576516 
     863   -9854.6843    58.346319   -9712.7836    455.02699    2.0054959    2.4644508   0.44169703    24.619706 
     864   -9854.2694    58.493779   -9709.3137    456.17698    2.0486722    2.4334094   0.44570882    24.659027 
     865   -9853.6998    57.429799   -9710.8382    447.87929    2.0190756    2.4157486   0.44955351    24.698127 
     866   -9853.2657    57.223493   -9713.7499    446.27037    1.9717902    2.4212089   0.45323627     24.74419 
     867   -9853.0249    58.353117   -9715.2451       455.08    1.9472537     2.448003   0.45674393    24.791392 
     868   -9852.7001    58.889806   -9715.4359    459.26549    1.9399676    2.4836053   0.46007515    24.836677 
     869   -9852.1597    57.861647   -9714.2476    451.24716    1.9491241    2.5108984   0.46322993    24.879444 
     870   -9851.6465    56.984031   -9709.9089    444.40288    2.0031909    2.5166593   0.46620901     24.92398 
     871   -9851.3572    57.750632   -9702.5217    450.38138    2.1035058    2.4981993   0.46902023    24.964667 
     872   -9851.1038    58.895693   -9696.3991     459.3114    2.1864567    2.4648097   0.47165694    25.006254 
     873   -9850.6347    58.618731   -9695.9443    457.15145    2.1862524    2.4332377   0.47411955    25.114322 
     874   -9850.0725    57.731421   -9700.6297    450.23156    2.1120877    2.4194914   0.47640913    25.152784 
     875   -9849.7027    58.269653   -9706.5168    454.42909    2.0236598    2.4310203   0.47852829    25.194725 
     876   -9849.4771    59.951877   -9711.3965    467.54829    1.9515061    2.4630613   0.48048825    25.233212 
     877   -9849.0964    60.614408   -9715.4579    472.71519    1.8887243    2.5008726   0.48228931     25.27163 
     878   -9848.5259    59.894181   -9717.7465    467.09834    1.8483184    2.5269042   0.48393908     25.31028 
     879    -9848.057    59.783493    -9716.022    466.23511    1.8660626    2.5294302   0.48544498    25.354727 
     880   -9847.8025    61.091226    -9711.007    476.43376    1.9333429    2.5083839   0.48681319    25.393186 
     881   -9847.4993    61.959031   -9707.3285    483.20153     1.981047    2.4754044   0.48805423     25.43176 
     882   -9846.9658    61.036268   -9708.3233    476.00516    1.9594463    2.4480164   0.48916572    25.470096 
     883   -9846.4186    59.839679    -9712.229    466.67329    1.8965144    2.4408551   0.49015129     25.50848 
     884   -9846.1006    60.191544   -9715.4059    469.41739    1.8471206    2.4583055   0.49101574    25.547032 
     885   -9845.8619    61.158175   -9716.9645    476.95588    1.8217193    2.4922106   0.49176544    25.598727 
     886   -9845.4158    60.795782   -9717.6408    474.12968     1.805856    2.5258055   0.49240645    25.637247 
     887   -9844.8431    59.630935   -9716.2879    465.04535    1.8168824    2.5420169   0.49294712    25.675672 
     888   -9844.4462    59.814683   -9711.1677    466.47835    1.8836367    2.5319291   0.49339395    25.722335 
     889   -9844.2248    61.380105   -9704.2299    478.68665    1.9785605    2.4992233   0.49375146    25.763513 
     890   -9843.8771    62.109592   -9700.2841    484.37572    2.0294128     2.458286   0.49402221    25.804738 
     891   -9843.3135    61.288472   -9701.1794    477.97203    2.0087943    2.4269871   0.49419719    25.846023 
     892   -9842.8191     60.85003   -9703.8165    474.55274    1.9645365    2.4179146   0.49428697    25.887219 
     893   -9842.5525    61.977628   -9704.7147    483.34657    1.9480738    2.4323721    0.4942939    25.927684 
     894   -9842.2733    63.046982   -9703.6147    491.68617    1.9596742    2.4600379   0.49422164    25.966398 
     895   -9841.7627    62.480116   -9701.0762    487.26534    1.9883348     2.484216   0.49407494    26.004882 
     896    -9841.199    61.544803   -9695.7387    479.97108    2.0558024    2.4901268   0.49384579    26.050783 
     897   -9840.8524      62.2246   -9687.0377    485.27264    2.1738772    2.4722721   0.49355167    26.098322 
     898   -9840.6164    63.845496   -9678.6411    497.91356    2.2892112     2.437174   0.49319748    26.203997 
     899   -9840.1933    64.266758   -9675.5913    501.19886    2.3263352    2.4001259   0.49278814    26.242525 
     900   -9839.6091    63.573078   -9678.4574    495.78905    2.2775714    2.3776565   0.49232914    26.281164 
     901   -9839.1676     63.88409   -9683.2648    498.21454     2.203389    2.3795338   0.49182026    26.319752 
     902   -9838.9236    65.613648   -9686.9173     511.7029    2.1483199    2.4040717   0.49127614    26.358282 
     903   -9838.5863    66.667257   -9689.4712     519.9197    2.1074583    2.4388035   0.49070647    26.396721 
     904   -9838.0213    65.987745   -9690.7922    514.62037    2.0808019    2.4662732   0.49012221    26.435307 
     905   -9837.4833    65.345414   -9688.8752    509.61101    2.1002922    2.4724314   0.48953522    26.473934 
     906   -9837.1772    66.293228    -9683.566    517.00276     2.171001     2.453556   0.48896137    26.512448 
     907   -9836.9082    67.536825   -9679.0607    526.70123    2.2308736    2.4180476   0.48840859    26.550918 
     908   -9836.4187     67.24563   -9679.7413    524.43028    2.2143363    2.3821028   0.48788804    26.590737 
     909   -9835.8366    66.282818   -9685.0634    516.92157    2.1308904    2.3615274    0.4874101    26.629322 
     910   -9835.4561    66.742276   -9691.1414    520.50475    2.0396137    2.3638843   0.48698424    26.667865 
     911   -9835.2234    68.321506   -9695.9764    532.82074    1.9679903    2.3847666   0.48662203    26.706447 
     912   -9834.8313     68.81534   -9700.0315    536.67202    1.9051378    2.4099338   0.48632759    26.745057 
     913   -9834.2483    67.907623   -9702.4844    529.59298    1.8622317    2.4222987    0.4861075    26.786777 
     914   -9833.7738    67.684049    -9701.089    527.84939    1.8752461    2.4104983   0.48596683    26.825829 
     915   -9833.5213    68.976092    -9696.554    537.92568    1.9357726    2.3746779   0.48595011    26.864263 
     916   -9833.2187    69.878832   -9693.5121     544.9659    1.9744872    2.3264015   0.48730839    26.902866 
     917   -9832.6838    69.007471   -9695.2631    538.17039    1.9421789    2.2827986   0.48866961    26.941328 
     918   -9832.1374    67.868896   -9699.9258    529.29096    1.8685581    2.2580281   0.49002164     26.97975 
     919    -9831.823     68.23979   -9703.7019    532.18345    1.8107464    2.2566064   0.49135267    27.018133 
     920   -9831.5871    69.100872   -9705.5398     538.8988    1.7814384     2.271574   0.49265106    27.057145 
     921   -9831.1422    68.442318   -9706.0225    533.76292    1.7683278    2.2880659   0.49391378    27.158555 
     922   -9830.5685    66.804384   -9703.9186    520.98912     1.789954    2.2907362   0.49512031    27.199768 
     923   -9830.1703    66.425743   -9697.5937     518.0362    1.8737169    2.2715448   0.49625885    27.238401 
     924   -9829.9503    67.472778    -9689.291    526.20174     1.987951    2.2339711   0.49731826    27.277062 
     925   -9829.6089    67.862281   -9684.1911    529.23937    2.0552021    2.1912213   0.49828874    27.315889 
     926   -9829.0611    66.933467   -9684.4602     521.9958    2.0436577    2.1594702   0.49917925    27.354201 
     927   -9828.5838    66.574398   -9687.1309    519.19552    1.9991675    2.1499395   0.49996687    27.392649 
     928   -9828.3295    67.884045      -9688.6     529.4091    1.9748092    2.1637413   0.50064765    27.431151 
     929   -9828.0601    69.193294   -9688.2282    539.61957    1.9762577    2.1914537   0.50121926    27.469886 
     930    -9827.562     68.90024   -9686.0473    537.33412     2.000041    2.2174969   0.50168061    27.508656 
     931   -9827.0114    68.205718    -9680.176    531.91774    2.0752385    2.2277267   0.50205793    27.547288 
     932   -9826.6728    68.984448   -9669.6761    537.99084    2.2188483    2.2166672    0.5023261    27.592745 
     933   -9826.4371    70.508281    -9658.062     549.8748    2.3796607    2.1904576   0.50248845    27.635551 
     934   -9826.0146    70.688997   -9650.5683    551.28415    2.4795988     2.183722   0.50255059    27.674209 
     935   -9825.4389    69.680833   -9648.4151    543.42176     2.501893    2.2147248   0.50252057    27.715551 
     936   -9825.0024    69.637946   -9648.4956    543.08729    2.4945872    2.2413742   0.50381106    27.754096 
     937   -9824.7582    71.056943    -9648.308    554.15366    2.4937871    2.2540668   0.50582847    27.799705 
     938    -9824.427    72.023915    -9647.979    561.69481     2.493755      2.24924    0.5079608    27.841238 
     939   -9823.8819    71.600737    -9647.242    558.39456    2.4964681    2.2732402   0.51020555    27.882935 
     940   -9823.3681    71.465428   -9644.1462    557.33933    2.5329589    2.2852897   0.51255993    27.924822 
     941   -9823.0723    72.979131   -9638.6613    569.14428     2.606298    2.2731569   0.51506188    27.966539 
     942   -9822.8026    74.771477   -9634.7865     583.1223    2.6572478    2.2465742   0.51766889    28.008319 
     943   -9822.3197    75.035445   -9636.3437    585.18091    2.6284155    2.2224848   0.52037834    28.108025 
     944   -9821.7529    74.539599   -9642.1856    581.31394    2.5378396    2.2312114   0.52318717    28.146551 
     945   -9821.3787    75.150234   -9647.9676    586.07612     2.450835     2.243743   0.52609158    28.185228 
     946   -9821.1362      76.4634   -9651.2718    596.31714    2.4007093     2.271259    0.5291365     28.22388 
     947   -9820.7373    76.426309   -9652.2279    596.02788    2.3815586    2.3103734   0.53226856    28.262348 
     948   -9820.1622    74.935682   -9650.1848    584.40289    2.4023065    2.3344856   0.53548334    28.300862 
     949   -9819.6993    74.166415   -9643.8185    578.40359    2.4857388    2.3330573   0.53877753    28.339485 
     950   -9819.4518    75.022812    -9635.113    585.08239    2.6052773     2.308019   0.54214941    28.377957 
     951   -9819.1542    75.802278   -9629.7089    591.16123    2.6774476    2.2728327   0.54566382    28.416414 
     952   -9818.6446    75.265156    -9631.436    586.97237    2.6458359    2.2457614   0.54925809    28.454916 
     953   -9818.1312    74.788506   -9638.5141    583.25511    2.5385443    2.2410304   0.55293392    28.493268 
     954   -9817.8311    75.897837   -9646.7479    591.90647    2.4179344    2.2622359   0.55669323    28.531879 
     955    -9817.598    77.534678    -9654.066    604.67175    2.3112119    2.3008805   0.56053804    28.577378 
     956   -9817.1634    77.846513   -9659.7255    607.10367    2.2250837    2.3404962    0.5645497     28.62399 
     957   -9816.6177    77.323324   -9661.5736    603.02346    2.1912524    2.3644348   0.56865257    28.665148 
     958   -9816.2373    77.858686   -9657.7049     607.1986     2.240553    2.3637492   0.57284922    28.711528 
     959   -9816.0113    79.330013    -9650.436    618.67307    2.3400897    2.3413967   0.57714226    28.749982 
     960   -9815.6671    79.667615   -9645.1043    621.30594    2.4105797     2.310766   0.58153384    28.843071 
     961   -9815.1271    78.361451   -9644.2363    611.11952    2.4152146    2.2892337   0.58611551    28.881406 
     962   -9814.6636     77.32208   -9645.6021    603.01376    2.3893618    2.2897113   0.59079781    28.920239 
     963   -9814.4124     77.69903   -9646.2318    605.95348     2.376911    2.3142015   0.59557875    28.958745 
     964   -9814.1497    78.105993   -9645.6457    609.12728    2.3814823    2.3524051   0.60045484    29.001413 
     965   -9813.6915    77.251437     -9643.92    602.46282    2.3993954    2.3863531   0.60542116    29.040059 
     966   -9813.1933    76.341545   -9639.6687    595.36683     2.452439    2.3990866   0.61055808    29.087556 
     967   -9812.8912    77.030846   -9632.8366     600.7425    2.5447278    2.3830706   0.61577306    29.134633 
     968   -9812.6762    78.566501   -9627.4047    612.71865    2.6184591    2.3441631   0.62105802    29.182687 
     969   -9812.2908    79.044097   -9628.2872    616.44329    2.6005383      2.29887   0.62640409    29.225513 
     970   -9811.7772    78.607361   -9635.8886    613.03731    2.4858492      2.26632   0.63180153    29.264372 
     971   -9811.3957    79.069458   -9646.0791    616.64107     2.336435    2.2589567   0.63729079      29.3044 
     972   -9811.1805    80.640567   -9655.0637    628.89373    2.2064125    2.2764399   0.64280959    29.350967 
     973   -9810.8763    81.462991   -9661.4905    635.30758    2.1112832    2.3058419   0.64834524    29.392319 
     974   -9810.3829    80.728137   -9664.0862    629.57666    2.0676244     2.327944   0.65388444    29.500024 
     975   -9809.9254    79.999101   -9660.9253    623.89111    2.1058317    2.3266685   0.65941384    29.546276 
     976   -9809.6634    80.493266   -9652.8147    627.74496    2.2167565    2.2969939   0.66494184    29.587044 
     977   -9809.4186    81.051577   -9644.8208    632.09908    2.3262754    2.2473483   0.67043587    29.627908 
     978   -9808.9864    80.287188   -9641.8909    626.13782    2.3615769    2.1953314   0.67588542    29.669393 
     979   -9808.4955    79.136559   -9644.1389    617.16438    2.3228663    2.1588883   0.68128069    29.714709 
     980   -9808.1859    79.349973   -9648.1832    618.82873    2.2613322    2.1474204    0.6866122    29.758643 
     981   -9807.9912    80.524329   -9651.5582    627.98721    2.2108827    2.1572234   0.69187845    29.797192 
     982    -9807.656    80.806154   -9653.3755     630.1851    2.1804605     2.173384   0.69706236    29.835974 
     983   -9807.1733    80.026194   -9651.9744     624.1024    2.1934394    2.1771541   0.70215585    29.875748 
     984   -9806.7894    79.856969   -9645.6976    622.78266     2.276725    2.1551932   0.70715243    29.916485 
     985   -9806.5754    80.805048   -9636.5051    630.17647    2.4036195    2.1061138   0.71204786    29.963772 
     986    -9806.301     81.30511   -9629.8522    634.07631    2.4937678    2.0409735   0.71680936     30.00619 
     987   -9805.8457    80.434048   -9629.5176    627.28314    2.4920611    1.9775125   0.72146738    30.047939 
     988   -9805.4007    79.530286   -9634.1716    620.23494    2.4199975    1.9312705   0.72602277    30.094491 
     989   -9805.1402    79.908842   -9640.1332     623.1872    2.3320597    1.9103875    0.7304762     30.18898 
     990   -9804.9308    80.655461   -9645.2889    629.00988    2.2562328    1.9174214   0.73482778    30.229665 
     991   -9804.5473    80.319694   -9648.5852    626.39133     2.204226    1.9145225    0.7390054    30.272672 
     992   -9804.0822    79.455255   -9648.2795     619.6498     2.201974    1.9108718   0.74307973    30.319841 
     993   -9803.7612    79.661444   -9643.5034    621.25781    2.2649376    1.9143521   0.74705096    30.360995 
     994   -9803.5597    80.778681   -9637.2017    629.97084    2.3511526    1.9278561   0.75092009    30.403576 
     995   -9803.2528    81.110009   -9634.4171    632.55478    2.3861697    1.9480103   0.75468846    30.448883 
     996   -9802.7918     80.27639   -9637.0857    626.05361    2.3419394    1.9666464   0.75829541    30.491497 
     997   -9802.3963    79.772301   -9642.5292    622.12236    2.2594162    1.9747656   0.76180053    30.533031 
     998   -9802.1633    80.365378   -9647.1019     626.7476    2.1914956    1.9670234   0.76520002    30.581793 
     999   -9801.9057    80.835026   -9649.2113    630.41026    2.1580445    1.9446149   0.76848758    30.637475 
    1000    -9801.479    80.222701   -9648.1269     625.6349    2.1673387    1.9145122    0.7716551    30.698507 
    1001   -9801.0329    79.640623   -9642.7182    621.09544    2.2374759    1.8855694   0.77466231     30.76849 
    1002   -9800.7525    80.455176   -9633.6447    627.44791     2.361751     1.864162   0.77753198    30.832126 
    1003   -9800.5369    81.975749   -9625.1598    639.30645    2.4786204     1.851577   0.78025582    30.881964 
    1004   -9800.1749    82.628507    -9622.006    644.39712    2.5180773    1.8440533   0.78282546    30.924301 
    1005   -9799.7116     82.57448     -9624.73    643.97579     2.473031    1.8348279   0.78742514    31.019956 
    1006   -9799.3594    83.285819   -9629.7595    649.52332    2.3969715    1.8175329   0.79623193    31.061175 
    1007   -9799.1356    84.862144   -9633.5332    661.81665    2.3404737    1.7896979   0.80475294    31.105647 
    1008   -9798.8287    85.790219   -9634.4154    669.05445    2.3236676     1.754133   0.81299349    31.158113 
    1009   -9798.3704    85.518758   -9631.1266     666.9374    2.3636721    1.7437667   0.82095884    31.197803 
    1010   -9797.9579    85.362184   -9622.5169    665.71632    2.4795242    1.7731733   0.82865473    31.240227 
    1011   -9797.7034    86.197547   -9610.2022    672.23109    2.6499713    1.7893467   0.83607835     31.28497 
    1012   -9797.4544    86.926928   -9599.2323    677.91933     2.801491    1.7846386   0.84324772    31.336638 
    1013   -9797.0496    86.386684   -9593.9767    673.70612    2.8700468    1.7688476     0.850172    31.392123 
    1014   -9796.6026    85.371593   -9594.2715     665.7897    2.8595632    1.7850181   0.85686067    31.449059 
    1015   -9796.3071      85.2907    -9596.856    665.15884    2.8188605    1.8245957   0.86332261    31.496796 
    1016   -9796.0939    85.807665    -9599.251    669.19051    2.7819979    1.8818893   0.86956556    31.542068 
    1017    -9795.759     85.53374   -9600.4471    667.05424    2.7603611     1.943012   0.87559553    31.590973 
    1018   -9795.3119    84.571916   -9599.0864    659.55324    2.7732726    1.9915546   0.88141779    31.646856 
    1019   -9794.9634    84.439396   -9594.1222    658.51976    2.8385073    2.0170591   0.88703741    31.685275 
    1020   -9794.7642    85.466509    -9587.613    666.52992    2.9276865    2.0207854      0.89246    31.724044 
    1021   -9794.5093    86.168401   -9584.2116    672.00379    2.9721562     2.015193    0.8976938    31.819933 
    1022   -9794.0971     85.67367   -9586.6581    668.14552    2.9317542      2.01756   0.90274375    31.858366 
    1023   -9793.6975    85.068217   -9593.2015    663.42375     2.833628    2.0411326   0.90761679    31.896708 
    1024   -9793.4537    85.373759   -9600.2891     665.8066    2.7300126    2.0883996   0.91231885    31.944166 
    1025   -9793.2342    85.753368   -9605.9144    668.76706    2.6474079    2.1494485    0.9168541    31.983103 
    1026   -9792.8651    85.072288   -9609.1071     663.4555    2.5970674    2.2064062   0.92122607    32.021806 
    1027   -9792.4377    84.021424   -9608.3712     655.2601    2.6014285     2.242207   0.92543336    32.068257 
    1028   -9792.1497    84.029282    -9603.413    655.32138    2.6674332    2.2492236   0.92947465    32.117181 
    1029   -9791.9594     84.82191   -9597.6089    661.50287    2.7467723    2.2333006   0.93334745    32.162537 
    1030   -9791.6573    84.887695   -9596.0496    662.01591    2.7645402    2.2109935    0.9370482    32.201064 
    1031   -9791.2265    84.069313    -9600.673    655.63358    2.6931096    2.2014508   0.94057633    32.240152 
    1032    -9790.872     83.82064   -9608.9828    653.69425     2.570657    2.2170398   0.94392099    32.278677 
    1033   -9790.6663     84.69518    -9617.468    660.51454    2.4478275     2.257351   0.94707345     32.31726 
    1034   -9790.4231    85.407066   -9624.1232    666.06635    2.3503321     2.309392   0.95002272    32.355749 
    1035   -9790.0215    85.083512   -9627.3479    663.54304    2.2990802    2.3539222   0.95275576    32.394296 
    1036   -9789.6112    84.800411   -9625.2781    661.33521    2.3225341    2.3749291    0.9552883    32.432836 
    1037   -9789.3536    85.735044   -9618.3151    668.62415    2.4173024    2.3675747   0.95757459    32.472118 
    1038    -9789.142    87.160526   -9610.6846     679.7411    2.5221541    2.3406759    0.9595994    32.510736 
    1039   -9788.7918    87.713928   -9607.1339    684.05693    2.5673886    2.3123684   0.96134812    32.613122 
    1040   -9788.3644    87.694418   -9608.4544    683.90478    2.5426849    2.3038882   0.96280721    32.654428 
    1041   -9788.0479    88.444927   -9611.6144    689.75779    2.4935509    2.3165705    0.9640179     32.69569 
    1042   -9787.8411    89.915037    -9613.506    701.22278    2.4638938    2.3545975   0.96491522    32.741235 
    1043   -9787.5462    90.703039   -9612.3861     707.3682    2.4755536    2.3992853   0.96548972    32.779787 
    1044   -9787.1213    90.454993   -9606.5354    705.43375    2.5522374    2.4307174    0.9657336    32.818306 
    1045   -9786.7572    90.416475   -9594.6087    705.13336    2.7156522    2.4348922   0.96564101     32.85681 
    1046   -9786.5305    91.211426   -9578.3664    711.33296    2.9420028    2.4107145   0.96526304    32.895266 
    1047   -9786.2911    91.686617    -9563.048    715.03885    3.1551144    2.3704693   0.96454371    32.934449 
    1048   -9785.9073     90.88322   -9553.0927    708.77338    3.2903899     2.333492    0.9634852    32.973145 
    1049   -9785.5012    89.712105    -9548.618    699.64017    3.3478918    2.3164033   0.96209236    33.020797 
    1050   -9785.2405    89.482248   -9546.8901    697.84758    3.3686278    2.3249901   0.96037208    33.060102 
    1051   -9785.0424    89.838055   -9545.7214    700.62242    3.3823454     2.351721   0.95836774    33.099438 
    1052   -9784.7274    89.613618   -9543.9017     698.8721    3.4036117     2.379836   0.95605288    33.138105 
    1053   -9784.3304    89.037039   -9539.8343    694.37551    3.4554844    2.3918817   0.95343712    33.176713 
    1054   -9784.0366    89.336917   -9532.7186    696.71418    3.5519001    2.3786003   0.95053098    33.216538 
    1055   -9783.8519    90.483265   -9525.0254    705.65424    3.6580191    2.3436437   0.94734625    33.311135 
    1056   -9783.5903    91.101373   -9521.3754    710.47469    3.7059073    2.3015951   0.94390704    33.354363 
    1057   -9783.1995     90.75641   -9524.1686    707.78442    3.6609077    2.2704643   0.94021755    33.403768 
    1058   -9782.8501    90.645925    -9531.701    706.92278     3.549513    2.2629456   0.93629359    33.455956 
    1059     -9782.64    91.505887   -9540.7845    713.62939    3.4181654    2.2808066   0.93215106     33.50076 
    1060   -9782.4266    92.373319   -9549.2797    720.39425    3.2950863    2.3145334   0.92780532    33.539464 
    1061   -9782.0766    92.327146   -9555.4337    720.03416    3.2031645    2.3480423   0.92326121    33.585163 
    1062    -9781.703    92.098876   -9557.1786    718.25394     3.173224     2.366601   0.91854216    33.623546 
    1063   -9781.4588    92.750557   -9554.3071    723.33623    3.2103557    2.3644289   0.91366146    33.662149 
    1064   -9781.2715    93.783999   -9550.3044    731.39575      3.26428    2.3477715   0.90863231    33.707132 
    1065   -9780.9786    93.993901   -9549.8517    733.03272    3.2665375    2.3316709   0.90346792    33.748727 
    1066   -9780.6056     93.53709   -9554.5666    729.47018    3.1946286      2.33232   0.89815969     33.79002 
    1067   -9780.3248    93.585526     -9562.42    729.84792    3.0796687    2.3590584   0.89274072    33.831323 
    1068    -9780.146    94.263348   -9570.5648    735.13407    2.9620306    2.4096394   0.88722098    33.872798 
    1069   -9779.9048    94.479077   -9576.9122    736.81648     2.868913    2.4706626    0.8816081    33.914241 
    1070   -9779.5568    93.901698   -9579.4003    732.31366    2.8288303    2.5234672   0.87590732    33.955453 
    1071   -9779.2454    93.575856    -9576.431    729.77251    2.8663941    2.5531786    0.8700985    33.996891 
    1072   -9779.0541    94.092884   -9569.3275    733.80467    2.9640853    2.5562581   0.86420642    34.038181 
    1073   -9778.8575    94.584351   -9562.7034    737.63748    3.0549261    2.5423276   0.85823218    34.079196 
    1074   -9778.5485    94.253007    -9560.876    735.05342    3.0763852    2.5291767    0.8521767    34.117587 
    1075   -9778.2264    93.731961   -9564.4889    730.98993    3.0207711    2.5335894    0.8460407    34.218197 
    1076   -9778.0123    93.954954   -9571.1396    732.72899    2.9237509    2.5626191   0.83980387    34.256848 
    1077   -9777.8485    94.551686   -9578.0302    737.38273    2.8240497    2.6096473   0.83348493    34.295213 
    1078   -9777.5967    94.533381    -9582.757    737.23998    2.7536865    2.6573769   0.82708084    34.333568 
    1079   -9777.2793    93.975793   -9582.8947     732.8915    2.7472554    2.6864195   0.82058696    34.380118 
    1080   -9777.0343    93.779759   -9577.3137    731.36269    2.8226704    2.6851152   0.81399786    34.421441 
    1081   -9776.8693    94.009277   -9568.2379    733.15264    2.9486064    2.6555307   0.80729349    34.462728 
    1082   -9776.6512    93.765538   -9560.3839    731.25178    3.0565256    2.6125568   0.80048488    34.504124 
    1083   -9776.3385    92.835378   -9557.2774    723.99772    3.0960103    2.5766092   0.79357016    34.543843 
    1084   -9776.0575    92.210051   -9559.1387    719.12096    3.0657327    2.5636793   0.78654908    34.600314 
    1085   -9775.8837    92.541706   -9564.1693    721.70746    2.9921788      2.57776   0.77942211    34.641717 
    1086   -9775.7132    93.181954   -9570.2881    726.70057    2.9032909    2.6092787   0.77218133    34.683092 
    1087   -9775.4445    93.416795   -9575.0147    728.53203    2.8326936    2.6400793   0.76483494    34.724637 
    1088   -9775.1519    93.713656   -9575.5374    730.84717    2.8211708    2.6523835   0.75738265    34.766143 
    1089   -9774.9525    94.814731   -9570.9051    739.43415      2.88382    2.6374056   0.74982507    34.805256 
    1090   -9774.7998    96.293005    -9563.737    750.96281    2.9829694    2.5994409   0.74216482    34.898522 
    1091   -9774.5644    97.123111    -9558.295    757.43658    3.0565552    2.5535192   0.73440304    34.937415 
    1092   -9774.2592    97.299576   -9556.7777    758.81278    3.0736847    2.5180644    0.7265519    34.976191 
    1093   -9774.0153    97.730812    -9558.246    762.17587    3.0494869    2.5062374   0.71862067    35.014771 
    1094   -9773.8565    98.638801    -9560.579    769.25703    3.0142697    2.5199036   0.71061882    35.056388 
    1095   -9773.6617    99.244572   -9561.8896    773.98127     2.992994    2.5487177    0.7025552    35.096217 
    1096   -9773.3819    99.222022   -9560.2118    773.80541    3.0127524    2.5747104   0.69443383    35.134717 
    1097   -9773.1273    99.307526   -9553.9651    774.47223    3.0974382    2.5805564   0.68626688    35.173163 
    1098   -9772.9723      99.9833   -9543.9833    779.74241    3.2363228    2.5579607   0.67806312     35.21157 
    1099   -9772.8263    100.56446   -9534.0449    784.27475      3.37472    2.5121495    0.6698331     35.25297 
    1100   -9772.5906    100.31781   -9528.1614    782.35118     3.454541    2.4604084   0.66158961    35.291527 
    1101   -9772.3258    99.700282   -9527.7122    777.53523    3.4571467    2.4763991   0.65333946    35.330031 
    1102   -9772.1435    99.621976   -9531.6808    776.92454    3.3984809    2.4564984   0.64510608     35.36849 
    1103   -9772.0179    100.04181    -9538.508     780.1987    3.3002158    2.4272513   0.63690461    35.407021 
    1104    -9771.839    100.23971   -9546.4028    781.74207    3.1861091    2.4590137    0.6287489    35.446154 
    1105   -9771.6078    100.15269   -9552.7195    781.06341    3.0935687    2.4847918   0.62065122    35.539506 
    1106   -9771.4293    100.39651   -9555.1883     782.9649    3.0561534    2.4868077   0.61261428    35.579912 
    1107   -9771.3226    100.99932   -9554.3372    787.66605    3.0666735    2.4591574   0.60465698    35.622244 
    1108   -9771.1839     101.1761   -9553.4024    789.04472    3.0779258    2.4541908   0.59678988    35.663758 
    1109   -9770.9721    100.58562   -9555.4057    784.43972    3.0466204    2.4695961   0.58902387    35.702805 
    1110   -9770.7779    99.867601   -9560.9477     778.8401    2.9655498    2.4486287    0.5813699    35.741454 
    1111    -9770.662    99.559932   -9568.8075    776.44068    2.8528283      2.39413    0.5738415    35.779954 
    1112    -9770.551    99.325365   -9577.2832    774.61135    2.7314714    2.3505838   0.56644379    35.818463 
    1113   -9770.3717    98.790223   -9584.3158    770.43793    2.6295457    2.3830806   0.55918212    35.857015 
    1114   -9770.1805    98.419036   -9587.7237    767.54314    2.5786777    2.4039213   0.55205894    35.895517 
    1115   -9770.0637    98.825828   -9586.9012     770.7156    2.5886524    2.3981008   0.54507426    35.938481 
    1116   -9769.9855    99.724957   -9584.0485    777.72767    2.6278634    2.3639507   0.53823158    35.979868 
    1117   -9769.8584     100.3356   -9582.6995    782.48988     2.645134    2.3139592   0.53152395    36.021156 
    1118   -9769.6875    100.51293   -9584.8388    783.87287    2.6124836    2.2935772   0.52494893    36.062971 
    1119   -9769.5529      100.746   -9589.8129    785.69048    2.5402811    2.3232016   0.51850358    36.156448 
    1120   -9769.4717    101.17455   -9595.4319    789.03261    2.4597202    2.3525066   0.51218365    36.195073 
    1121   -9769.3704    101.34579    -9599.195    790.36806     2.405104    2.3743501   0.50595133    36.233834 
    1122    -9769.218    101.04085   -9598.7379    787.98997    2.4094109    2.3837171   0.49982803    36.272259 
    1123    -9769.075    100.68665   -9592.6286    785.22764    2.4937319    2.3804234   0.49380329    36.310832 
    1124   -9768.9885    100.62874   -9581.8383      784.776     2.645011    2.3693976    0.4878658    36.351348 
    1125   -9768.9222    100.54969    -9569.924    784.15953    2.8124597    2.3583496   0.48200458    36.392725 
    1126   -9768.8001    100.06816    -9560.845    780.40423    2.9390494    2.3540229   0.47611692    36.432863 
    1127   -9768.6606    99.408029    -9556.565    775.25603    2.9975653    2.3588593   0.47179883    36.475781 
    1128   -9768.5696    99.056334   -9556.4772    772.51325      2.99752    2.3699633   0.47575842    36.516227 
    1129   -9768.5158    98.922218   -9558.5972    771.46732    2.9667983     2.380677   0.47967077    36.559239 
    1130   -9768.4346    98.470117   -9560.5429    767.94151    2.9381531    2.3840475   0.48354844    36.603036 
    1131   -9768.2972    97.671189   -9559.8853    761.71089    2.9455051    2.3764538   0.48745809    36.643802 
    1132   -9768.1842    97.063192   -9555.3146    756.96928     3.008505    2.3594929   0.49135208    36.684483 
    1133   -9768.1193    96.903503   -9548.0282    755.72391    3.1105677    2.3394132   0.49523656    36.726909 
    1134    -9768.042    96.835379   -9541.5016    755.19264    3.2017148    2.3241655   0.49911653     36.82983 
    1135   -9767.9227    96.595087   -9539.2432    753.31866    3.2319478    2.3196155   0.50299653    36.870621 
    1136   -9767.8077    96.444512   -9542.7273    752.14437    3.1810821    2.3267098   0.50690086     36.91197 
    1137   -9767.7371    96.591856   -9551.1783    753.29347    3.0606452    2.3408739   0.51081421    36.952988 
    1138    -9767.662    96.765555   -9562.2792     754.6481    2.9026943    2.3540739   0.51474038     36.99438 
    1139   -9767.5362    96.767072   -9572.7391    754.65993    2.7530846    2.3585212   0.51868195    37.035272 
    1140    -9767.406    96.955238   -9579.3867    756.12738    2.6572938    2.3503355   0.52263983    37.089094 
    1141   -9767.3238     97.66138    -9581.109    761.63439    2.6317907    2.3313498   0.52660674    37.129618 
    1142   -9767.2543    98.535432   -9579.8569    768.45088    2.6485056    2.3080363     0.530587    37.173668 
    1143   -9767.1395     98.99968   -9579.1704    772.07142    2.6565847    2.2881331   0.53457753    37.219758 
    1144   -9766.9995    99.031716   -9581.6316    772.32127    2.6198207    2.2765605   0.53857493    37.270132 
    1145   -9766.8928     99.00043   -9587.6424    772.07727    2.5333626    2.2727708   0.54257557    37.321901 
    1146   -9766.8096    98.985525   -9595.7696    771.96103    2.4173243    2.2709094   0.54659861    37.432162 
    1147   -9766.6969    98.813012   -9603.4049    770.61565    2.3078209    2.2626795   0.55061606     37.47758 
    1148    -9766.558    98.631648   -9607.5901    769.20125     2.246708      2.24152    0.5546215    37.526194 
    1149   -9766.4458    98.850813   -9606.5851    770.91045    2.2593257    2.2058737   0.55860686    37.574143 
    1150   -9766.3701    99.489984     -9601.34    775.89517    2.3323849    2.1999626   0.56256272    37.620221 
    1151   -9766.2705    100.13103    -9595.045    780.89449    2.4199449    2.1774533   0.56653704    37.670217 
    1152   -9766.1321    100.58137   -9590.8939     784.4066    2.4766564    2.1363718   0.57046217    37.713688 
    1153   -9766.0079    101.13235   -9590.2121    788.70355    2.4845383    2.0958434   0.57432939    37.757393 
    1154     -9765.93    101.92764   -9592.3121    794.90581    2.4537576    2.0749958    0.5781312    37.802839 
    1155   -9765.8531    102.55896   -9595.1448     799.8293    2.4126352    2.0836011   0.58186113    37.850889 
    1156   -9765.7266    102.64389   -9595.7268    800.49159    2.4026227    2.1172603   0.58554319    37.901638 
    1157   -9765.5849    102.42921   -9590.9849     798.8174    2.4676377    2.1593978   0.58914184    37.948401 
    1158   -9765.4893    102.36856   -9579.6312    798.34443    2.6267493    2.1892848   0.59265151     37.98913 
    1159   -9765.4216    102.34691   -9563.5744    798.17555    2.8527236     2.192184   0.59606707    38.029943 
    1160   -9765.3111    101.92095    -9546.993    794.85359     3.085509    2.1666423   0.59938438    38.143266 
    1161   -9765.1616    101.20083   -9533.8039    789.23757    3.2697994     2.125205    0.6025692    38.184018 
    1162   -9765.0513    100.77527   -9526.0983    785.91875    3.3771446     2.088229    0.6056525    38.224968 
    1163   -9764.9913    100.80021   -9524.0666    786.11327    3.4050103    2.0737355   0.60863496    38.266457 
    1164   -9764.9056    100.86621   -9526.1928    786.62797    3.3737483    2.0884993   0.61151837    38.316919 
    1165   -9764.7698    100.88373   -9529.4114     786.7646    3.3263406    2.1246768   0.61430499    38.365447 
    1166   -9764.6507    101.37743   -9530.4969    790.61481    3.3093164     2.163625   0.61694904    38.411059 
    1167   -9764.5959    102.54497   -9528.5615    799.72021    3.3358959    2.1851588    0.6195014    38.462597 
    1168   -9764.5349    103.75174   -9525.7764    809.13146     3.374396    2.1774961   0.62196458    38.508497 
    1169   -9764.4093    104.40511   -9525.2736    814.22692    3.3797265    2.1431214    0.6243416    38.557704 
    1170   -9764.2799    104.70948   -9528.5704    816.60061    3.3313038    2.0975407   0.62920097    38.601849 
    1171   -9764.2114    105.01808   -9535.0573    819.00729    3.2386553    2.0616083   0.63455998    38.646983 
    1172   -9764.1606    105.01795   -9542.8702     819.0063    3.1275175    2.0513696   0.63971745    38.690143 
    1173   -9764.0487    104.25581   -9549.2712    813.06254    3.0354695    2.0703284   0.64466696    38.730032 
    1174   -9763.9026    103.04558   -9551.1943    803.62427    3.0062263    2.1079174   0.64940266    38.844365 
    1175   -9763.8141     102.1011   -9547.1165    796.25852    3.0626075    2.1447526   0.65391941    38.912981 
    1176   -9763.7662    101.50539   -9538.8108    791.61277    3.1793163     2.162138    0.6582205    38.966961 
    1177    -9763.679    100.76147   -9530.5706    785.81113     3.294543     2.205523   0.66229219     39.03831 
    1178   -9763.5418    99.846354   -9526.2808     778.6744     3.353231    2.2690964   0.66612831    39.085856 
    1179    -9763.434    99.364101   -9527.4654    774.91345     3.334965    2.3207064   0.66972145    39.136126 
    1180   -9763.3895    99.573178   -9533.5356    776.54398    3.2485463     2.351874    0.6730633    39.183622 
    1181   -9763.3282    100.01604   -9542.5078    779.99775    3.1208751    2.3616178   0.67615626    39.246428 
    1182   -9763.2094    100.28057   -9551.2936    782.06076    2.9950252    2.3572824   0.68063377    39.303835 
    1183   -9763.0818    100.60155   -9556.5753    784.56397     2.918576    2.3510072   0.68491304    39.356241 
    1184   -9763.0025    101.27523    -9556.772     789.8178    2.9146744    2.3538608   0.68893886    39.408827 
    1185   -9762.9413    101.97436   -9553.2284    795.27017    2.9638909    2.3705969   0.69271423    39.459697 
    1186   -9762.8252    102.20158   -9548.9337    797.04216    3.0229469    2.3974294   0.69618898    39.511762 
    1187   -9762.6811    102.04978   -9546.2297    795.85834     3.059127     2.423774   0.69942346    39.565938 
    1188   -9762.5749    101.96796   -9545.8447    795.22024    3.0630665    2.4372513   0.70242229    39.618217 
    1189   -9762.5018    101.95003   -9547.3332    795.08038    3.0409971    2.4296571   0.70518867     39.66962 
    1190   -9762.3988    101.57794   -9549.3222    792.17855     3.011431    2.4009164   0.70772453    39.787161 
    1191   -9762.2492    100.81204   -9549.5324    786.20551    3.0063464    2.3588657   0.71000202    39.829069 
    1192   -9762.1148    100.14763   -9545.8244      781.024    3.0568515    2.3149902   0.71205206    39.870956 
    1193   -9762.0277    99.857457    -9538.068    778.76099     3.165243    2.3181421    0.7138776    39.912743 
    1194   -9761.9331    99.592056   -9528.7455    776.69121    3.2956611    2.3304671   0.71548298    39.954937 
    1195    -9761.786     99.04318   -9521.3611    772.41067    3.3979469    2.3388567    0.7168732    39.998259 
    1196   -9761.6278    98.514099   -9518.4047    768.28451    3.4374939    2.3426587   0.71803801     40.03901 
    1197   -9761.5097    98.423665   -9520.7008    767.57925    3.4033741    2.3425227   0.71899503    40.084893 
    1198   -9761.4042    98.675181   -9527.5748    769.54075     3.304732    2.3401114   0.71974485     40.13376 
    1199   -9761.2622    98.944311   -9536.8507    771.63962    3.1716294    2.3373094    0.7202859    40.172489 
    1200   -9761.0973    99.276763    -9545.259    774.23232    3.0504625    2.3353273   0.72061504      40.2119 
    1201   -9760.9568    99.935714    -9550.097     779.3713    2.9800999    2.3341317   0.72069603    40.250339 
    1202   -9760.8397    100.77974   -9551.0959    785.95361    2.9643283    2.3324879   0.72055884    40.290013 
    1203   -9760.6933    101.30772   -9550.4368     790.0712    2.9715746    2.3286013   0.72020224    40.328494 
    1204   -9760.5037    101.35197   -9550.9097    790.41627    2.9622112    2.3210497   0.71962605    40.435034 
    1205   -9760.3219    101.27973   -9554.1618    789.85293    2.9136792     2.309519   0.71882999    40.474656 
    1206   -9760.1719    101.40211   -9560.3203    790.80729    2.8245208    2.2949481   0.71777044    40.514408 
    1207   -9760.0201    101.57276   -9568.3333    792.13819    2.7091271    2.2790292   0.71648508    40.554588 
    1208   -9759.8282    101.61648   -9576.2551    792.47917    2.5944552    2.2633078   0.71496757    40.599881 
    1209   -9759.6196    101.80345   -9581.8971    793.93723     2.511768    2.2483954   0.71321038    40.639732 
    1210   -9759.4474    102.52114   -9584.2684    799.53432    2.4758215    2.2336793   0.71120633    40.681905 
    1211   -9759.3002    103.64169    -9584.562     808.2732    2.4695908    2.2290708   0.70892608    40.724215 
    1212    -9759.123     104.6618   -9585.2921    816.22878     2.456769    2.2261092   0.70639054    40.766738 
    1213   -9758.9112    105.41372   -9588.2483    822.09274    2.4119948    2.1961477   0.70359838    40.814272 
    1214   -9758.7193    106.13572   -9593.4548    827.72342    2.3356975     2.154097   0.70293749    40.862258 
    1215   -9758.5636    106.81672   -9599.6492    833.03442    2.2459519     2.120732   0.70442611    40.919143 
    1216   -9758.3887    107.01613   -9604.9193    834.58956    2.1689966    2.1125758   0.70565019    40.960157 
    1217   -9758.1622    106.55163   -9606.8919    830.96702    2.1379167    2.1339749   0.70661101    41.002657 
    1218    -9757.934    105.89418   -9603.5204    825.83975    2.1823409    2.1751188    0.7073174    41.106246 
    1219   -9757.7557    105.53409    -9594.761    823.03149    2.3036201    2.2169136   0.70777868    41.151606 
    1220   -9757.5939    105.33609   -9583.3283    821.48733    2.4629114    2.2403633   0.70800343    41.196276 
    1221   -9757.3843    104.96941   -9573.1673    818.62775    2.6035546    2.2359389   0.70800613    41.237862 
    1222   -9757.1488     104.6733   -9567.0479    816.31841    2.6867137    2.2083012   0.70778395    41.283236 
    1223   -9756.9607    104.99525   -9565.5792    818.82925    2.7048133    2.1739853   0.70733996    41.323368 
    1224   -9756.8157    105.89444   -9567.7139    825.84174    2.6725926    2.1551106   0.70667654    41.364962 
    1225   -9756.6384    106.76257   -9571.1313    832.61211    2.6217876    2.1720047   0.70579617    41.412138 
    1226    -9756.411    107.33407   -9572.4866    837.06905    2.5994204    2.2030773   0.70471511    41.459365 
    1227   -9756.2041    107.89796   -9568.8439    841.46666    2.6479782    2.2467031   0.70342374    41.527141 
    1228   -9756.0486    108.46815   -9559.8952    845.91345    2.7722541    2.2934646   0.70192537    41.585819 
    1229   -9755.8717    108.46138   -9548.4053     845.8606    2.9321415    2.3176841   0.70022249    41.715252 
    1230   -9755.6234    107.61993   -9538.0486     839.2984    3.0750038    2.3123431   0.69831649    41.764568 
    1231   -9755.3754    106.60738   -9531.1289    831.40181    3.1692949    2.2849093   0.69623563    41.823013 
    1232    -9755.202    106.09963   -9528.3493    827.44202    3.2061305    2.2536352   0.69395226    41.940763 
    1233   -9755.0514    105.84953   -9529.4169    825.49154     3.188913    2.2385657   0.69146653    42.008923 
    1234   -9754.8376    105.29501   -9532.7602    821.16695    3.1386398    2.2516797   0.68877904    42.091569 
    1235   -9754.5905    104.61428   -9535.4793    815.85818    3.0967185    2.2909811   0.68589079    42.159064 
    1236   -9754.3978    104.38348   -9535.1762    814.05818     3.098279    2.3414195    0.6828353    42.284251 
    1237   -9754.2468    104.47293   -9532.2387    814.75579    3.1376601    2.3822286   0.67958021    42.436333 
    1238   -9754.0406    104.21499   -9529.5291    812.74421    3.1730413    2.3971055   0.67612425    42.511405 
    1239   -9753.7708    103.59975    -9529.809    807.94615    3.1652725    2.3822678   0.67246462    42.632392 
    1240   -9753.5361    103.38243   -9534.1297    806.25133    3.1008911    2.3483877   0.66859734     42.70556 
    1241    -9753.369    103.87436   -9542.2292    810.08772     2.984058    2.3154203   0.66454281    42.767288 
    1242   -9753.1813    104.50029   -9552.9498    814.96919    2.8298896    2.3028921   0.66027262    42.845275 
    1243   -9752.9197    104.85572   -9563.7985    817.74111    2.6728677    2.3204076   0.66321724    42.895285 
    1244   -9752.6577    105.36313   -9571.4656    821.69823    2.5608037    2.3630046   0.66851629    43.028308 
    1245   -9752.4639    106.38572   -9574.0741    829.67311     2.521199    2.4135662   0.67338783    43.084038 
    1246   -9752.2798    107.39899   -9572.6703    837.57536    2.5384372    2.4511377   0.67783355    43.137199 
    1247   -9752.0214    107.70647   -9569.9186    839.97334    2.5736753     2.461149   0.68181507    43.226724 
    1248   -9751.7227    107.51629   -9567.7214    838.49013    2.6005067    2.4425713   0.68531145    43.291863 
    1249   -9751.4809    107.54013   -9566.6237    838.67608    2.6126038    2.4084158   0.68829915    43.366738 
    1250   -9751.2917    107.79406   -9566.6777    840.65639     2.609166    2.3793156   0.69075138    43.425419 
    1251   -9751.0511     107.6784   -9567.3906     839.7544    2.5956897    2.3733881   0.69267574      43.4746 
    1252   -9750.7473    107.15724   -9566.9338    835.68997     2.597853    2.3973725   0.69400008    43.521952 
    1253   -9750.4767    106.94806   -9562.9149     834.0587    2.6508275     2.443323   0.69468735     43.57211 
    1254    -9750.279     107.3355   -9554.7232    837.08023    2.7638078    2.4924479   0.69469844    43.628442 
    1255   -9750.0647    107.68982   -9544.3914    839.84349    2.9067997    2.5242613   0.69399346    43.678545 
    1256   -9749.7662    107.58908   -9534.7016     839.0578    3.0395269    2.5266249   0.69257234    43.731196 
    1257   -9749.4697    107.55745   -9527.1814    838.81115    3.1416209    2.5017205   0.69035933    43.830813 
    1258   -9749.2568    108.08664   -9522.1952    842.93815    3.2090819    2.4652855    0.6873222    43.872232 
    1259   -9749.0588    108.65826   -9519.5681    847.39605    3.2434116    2.4754547   0.68343506    43.914232 
    1260   -9748.7775    108.56096   -9517.9219    846.63727    3.2627034    2.4908976    0.6786803    43.953949 
    1261   -9748.4525    108.09937   -9514.3961    843.03743    3.3079398    2.4803433   0.67307332    43.993269 
    1262   -9748.1933    108.07178    -9506.749    842.82227    3.4123538    2.5075769   0.66659478    44.032172 
    1263   -9747.9874    108.42852   -9495.8522    845.60435    3.5634494    2.5511582   0.65925993     44.07104 
    1264   -9747.7239    108.42333     -9485.13    845.56393    3.7112629    2.5737261   0.65109505    44.109455 
    1265   -9747.3951    107.96518   -9477.6146    841.99091    3.8128324     2.566154   0.64213598    44.148961 
    1266   -9747.1053    107.79286   -9474.3839    840.64703    3.8543968    2.5340137   0.63243054    44.189529 
    1267   -9746.8893    108.18158   -9475.4802    843.67855    3.8358499    2.4946729   0.62202345     44.22802 
    1268   -9746.6436    108.53239    -9480.516    846.41444    3.7612051    2.4685989   0.61416717     44.26663 
    1269   -9746.3092    108.58408   -9487.8698    846.81751    3.6525478    2.4691541   0.61175739    44.305279 
    1270   -9745.9816    109.09405   -9494.7557    850.79462    3.5505989    2.4960626   0.60907167      44.3443 
    1271   -9745.7448    110.68953   -9499.3899    863.23736    3.4817553    2.5356815   0.60609501    44.437416 
    1272   -9745.5351    112.72491   -9502.6281    879.11074    3.4330261    2.5677704    0.6028938    44.476305 
    1273   -9745.2432     114.1173   -9506.5243    889.96957    3.3738352    2.5756242   0.59949731    44.519317 
    1274   -9744.8988    114.77228   -9511.7958     895.0776    3.2944655    2.5544111   0.59593612    44.558687 
    1275   -9744.6165     115.2975   -9517.5383    899.17365    3.2093167    2.5135707   0.59224113    44.600175 
    1276    -9744.391    115.65228   -9522.7349    901.94052     3.132686    2.4720449   0.58840433    44.640912 
    1277   -9744.1132    115.11825   -9526.7211    897.77575    3.0724224    2.4488273   0.58449175     44.67961 
    1278   -9743.7548    113.67226   -9528.3055    886.49888    3.0449644    2.4538763   0.58052976    44.718149 
    1279   -9743.4269    112.33517   -9526.1908    876.07127    3.0702186    2.4836256   0.57654294    44.756681 
    1280   -9743.1966    111.79516   -9521.0175    871.85985    3.1400767    2.5229998   0.57255447     44.80105 
    1281   -9742.9683    111.59602   -9515.9009    870.30688     3.209165    2.5528778   0.56854822    44.839671 
    1282   -9742.6575    111.21639   -9514.0147    867.34617    3.2314294    2.5595324   0.56458325    44.879431 
    1283   -9742.3357    111.12018   -9516.2237    866.59592    3.1956615    2.5415507   0.56067894    44.920218 
    1284    -9742.106    111.87789   -9521.5799    872.50505     3.116716    2.5105509   0.55685245     44.95864 
    1285     -9741.91    112.93206    -9528.876    880.72623    3.0108285    2.4911108   0.55311844     45.00399 
    1286   -9741.6228    113.30589   -9536.4231    883.64166    2.9001054    2.5201426   0.54946822    45.097605 
    1287    -9741.271    113.12113   -9541.2527    882.20073    2.8268766    2.5344323   0.54593286     45.13617 
    1288   -9740.9854    113.30362   -9540.6285    883.62395    2.8316617    2.5587804   0.54252148    45.174737 
    1289   -9740.7762    113.97735   -9534.7099     888.8782    2.9123537     2.612039   0.53924241    45.213484 
    1290   -9740.5187    114.32198   -9526.5317    891.56586    3.0242976    2.6492057   0.53610329    45.252361 
    1291   -9740.1762    114.08784   -9519.1365    889.73989    3.1239744    2.6572684   0.53309647    45.293238 
    1292   -9739.8679     114.0411   -9513.7555    889.37534    3.1956672    2.6369563   0.53024013     45.33218 
    1293   -9739.6521    114.57632   -9510.5652    893.54937     3.237705    2.6023941   0.53002457    45.370653 
    1294   -9739.4261    114.99737   -9509.3997    896.83301    3.2509836    2.6071968   0.53427924    45.409118 
    1295   -9739.1087    114.74129   -9508.8757    894.83596    3.2539035    2.6254459    0.5383498    45.447668 
    1296   -9738.7684    114.42954   -9506.2416    892.40469    3.2863217    2.6290901   0.54224668    45.487842 
    1297   -9738.5152    114.92534   -9499.7356    896.27131    3.3746933    2.6292757   0.54596118    45.534147 
    1298   -9738.3097    115.97746   -9490.7044    904.47646     3.499428    2.6649495   0.54948913    45.584286 
    1299   -9738.0353    116.67844   -9482.5381    909.94326    3.6109656     2.678032   0.55282397    45.639926 
    1300   -9737.7043    116.92847    -9477.627    911.89316    3.6756956    2.6593147   0.55595865    45.753993 
    1301   -9737.4278     117.4092   -9476.1495     915.6422    3.6926693    2.6146636    0.5589057    45.797217 
    1302   -9737.2253    118.17172   -9477.2524     921.5889      3.67422    2.6340534   0.56164316     45.84394 
    1303   -9736.9836    118.41411   -9479.6418    923.47924    3.6370342      2.65216   0.56416831    45.889505 
Loop time of 45.8895 on 1 procs for 1000 steps with 993 atoms

Pair  time (%) = 40.4723 (88.1951)
Bond  time (%) = 0.00425863 (0.00928019)
Kspce time (%) = 2.98081 (6.49563)
Neigh time (%) = 2.15284 (4.69136)
Comm  time (%) = 0.15033 (0.327592)
Outpt time (%) = 0.0600498 (0.130857)
Other time (%) = 0.0689225 (0.150192)

Nlocal:    993 ave 993 max 993 min
Histogram: 1 0 0 0 0 0 0 0 0 0
Nghost:    15980 ave 15980 max 15980 min
Histogram: 1 0 0 0 0 0 0 0 0 0
Neighs:    894511 ave 894511 max 894511 min
Histogram: 1 0 0 0 0 0 0 0 0 0

Total # of neighbors = 894511
Ave neighs/atom = 900.817
Ave special neighs/atom = 0.193353
Neighbor list builds = 36
Dangerous builds = 0

unfix nvt_warmup
unfix momfix

reset_timestep ${rampLength}
reset_timestep 1000

fix nvt_run all nvt temp ${Tdesired} ${Tdesired} 0.05
fix nvt_run all nvt temp 900 ${Tdesired} 0.05
fix nvt_run all nvt temp 900 900 0.05
fix momfix all momentum 5 linear 1 1 1 angular

shell mkdir data

dump save1 all xyz 5000 dat_vesta.*.xyz.gz
#dump save1 all custom 5000 dat.*.xyz.gz element x y z q type c_energy
dump save2 all custom 5000 dat.*.gz id type element q xs ys zs xu yu zu vx vy vz c_energy c_allatom_disp[4]
#dump save2 all cfg 5000 dat.*.cfg mass type xs ys zs vx vy vz id type c_energy c_bond_energy x y z
dump_modify save1 element Si Si Al Al O Oa K H Ob D # D is for Dummy - does not exist
dump_modify save2 element Si Si Al Al O Oa K H Ob D # D is for Dummy - does not exist

run ${runLength}
run 1000
PPPM initialization ...
  G vector (1/distance) = 0.222203
  grid = 15 16 30
  stencil order = 5
  estimated absolute RMS force accuracy = 7.94014e-05
  estimated relative force accuracy = 5.51413e-06
  using double precision FFTs
  3d grid and FFT values/proc = 18722 7200
Memory usage per processor = 21.72 Mbytes
Step TotEng KinEng Enthalpy Temp press_gp max_alla max_kato CPU 
    1000   -9736.9836    118.41411   -9479.6418    923.47924    3.6370342      2.65216   0.56416831            0 
    1001   -9736.9249    117.56688   -9481.4269    916.87195    3.6109763    2.6586878   0.56647628  0.041223049 
    1002   -9736.8795    116.65979   -9479.4043    909.79779    3.6389213    2.6502585    0.5685598  0.082472086 
    1003     -9736.92    116.30612   -9472.8452     907.0396    3.7321929    2.6303248   0.57040967   0.12111688 
    1004   -9736.9728    116.05309   -9464.2823     905.0663    3.8539591    2.6073637   0.57201454   0.15934587 
    1005   -9736.9464    115.29961   -9457.5568    899.19013    3.9486392    2.5906058   0.57336333     0.197824 
    1006   -9736.8797    114.49621   -9454.9926    892.92465    3.9839351    2.5854706   0.57445532   0.23606586 
    1007   -9736.8926    114.52307    -9457.041    893.13411     3.955169    2.5910325   0.57585574   0.27454305 
    1008   -9736.9712    115.27407   -9463.3074    898.99097    3.8677154     2.600554    0.5797197   0.31279993 
    1009   -9736.9937    115.82001   -9472.5086    903.24855    3.7379924    2.6049098   0.58341161   0.35249686 
    1010   -9736.9477    115.90185   -9481.6455     903.8868    3.6082081    2.5971667   0.58692606   0.39370298 
    1011   -9736.9305    116.23527   -9487.1201    906.48706    3.5305931    2.5760782   0.59020504   0.43461895 
    1012   -9737.0019    117.05096   -9487.8106    912.84841    3.5218444    2.5467357   0.59328657    0.5534749 
    1013   -9737.0538    117.50798   -9485.9025    916.41263    3.5495452    2.5180073   0.59615308    0.6050179 
    1014   -9737.0047    117.03712   -9484.4403    912.74045    3.5695146    2.5125573   0.59878232     0.651963 
    1015   -9736.9627    116.30523   -9484.8817    907.03264    3.5626837    2.4909088   0.60114792   0.69328403 
    1016   -9737.0115    116.08973   -9487.3515    905.35206     3.528468     2.493702   0.60316149   0.73449206 
    1017   -9737.0901    115.92247   -9491.9634    904.04761    3.4643972    2.4991057   0.60485029    0.7759099 
    1018   -9737.0696    115.02277   -9497.9644     897.0311    3.3792947    2.4984529   0.60617985   0.81737208 
    1019   -9736.9928    113.84507   -9502.8953    887.84656    3.3085218    2.4861841   0.60711427   0.85782695 
    1020   -9737.0086    113.51483   -9504.3991    885.27108    3.2874904    2.4743643   0.60761736   0.89664006 
    1021   -9737.1002    114.06766   -9502.9365    889.58248    3.3094566    2.5163194   0.60761364    0.9348681 
    1022   -9737.1321    114.45117    -9501.503    892.57337    3.3301674    2.5420922   0.60711267   0.97846699 
    1023   -9737.0716    114.30688   -9502.3991    891.44811    3.3166488    2.5399972   0.60608817    1.0265639 
    1024   -9737.0517    114.39016   -9505.6264     892.0976     3.270755    2.5118002   0.60452091    1.0732861 
    1025   -9737.1343    114.99075    -9510.232    896.78143      3.20683    2.4718894   0.60516078    1.1130199 
    1026   -9737.1862    115.26637   -9515.3051    898.93092    3.1358657    2.4400852   0.61147126    1.2062719 
    1027   -9737.1275    114.69603   -9519.1324      894.483     3.080944    2.4318781   0.61783083    1.2447081 
    1028   -9737.0617    114.10254   -9519.1233    889.85451     3.080142    2.4509037   0.62398084    1.2860289 
    1029   -9737.1001    114.37295   -9514.2521    891.96337    3.1495313    2.4872558   0.62992462    1.3244429 
    1030   -9737.1827     115.0609   -9506.8459    897.32849    3.2553716    2.5223237   0.63566393     1.362844 
    1031    -9737.169    115.24784   -9500.6227    898.78638    3.3431298    2.5378974   0.64115335    1.4012039 
    1032   -9737.1019     115.0757   -9497.5889    897.44391    3.3850595    2.5251892   0.64643777    1.4416671 
    1033   -9737.1135    115.34801   -9497.5428    899.56759    3.3858733    2.4892078   0.65151602     1.490917 
    1034   -9737.1942    115.94406   -9499.8398      904.216    3.3545512    2.4463249   0.65638714    1.5353479 
    1035   -9737.2163    115.92251   -9503.7045    904.04794    3.3002424    2.4162816   0.66105039    1.5769141 
    1036   -9737.1419    115.17104   -9507.0432    898.18741    3.2520069    2.4126346   0.66546007    1.6151879 
    1037   -9737.1067    114.65417   -9507.2176    894.15655    3.2490438    2.4362595   0.66965894    1.6538749 
    1038   -9737.1742     114.8357   -9503.6947     895.5722    3.2997871    2.4748228    0.6736428     1.692193 
    1039   -9737.2288    114.91818   -9499.0329    896.21545    3.3664453     2.508604   0.67740516    1.7307699 
    1040   -9737.1781     114.2648   -9496.4072    891.11989    3.4028373    2.5199843   0.68093771    1.8321459 
    1041    -9737.107    113.57021    -9497.073    885.70301     3.392422    2.5020614   0.68421131    1.8734081 
    1042     -9737.14    113.70412   -9500.8875    886.74733     3.338978    2.4621297    0.6872376    1.9146879 
    1043   -9737.2176     114.2532   -9507.5543    891.02947    3.2458522    2.4180604   0.69000882     1.956893 
    1044   -9737.2036    114.25701   -9515.9595    891.05914     3.126863    2.3895244   0.69251793     2.002331 
    1045   -9737.1195    113.88309   -9523.1291    888.14309    3.0243449    2.3884063   0.69475784    2.0573189 
    1046   -9737.1066    114.15776    -9525.935    890.28512     2.984507     2.413056   0.69673034    2.1047721 
    1047   -9737.1867     115.1615   -9524.1746    898.11308    3.0105186    2.4491241   0.69841576     2.160193 
    1048    -9737.217    115.80255   -9520.6615    903.11242     3.060598    2.4764505   0.69980269     2.213078 
    1049     -9737.14     115.5743   -9518.0886    901.33234    3.0958723    2.4789688   0.70087894    2.2542539 
    1050    -9737.084    115.27504   -9516.9959    898.99852    3.1105255    2.4527026   0.70163285    2.3126011 
    1051   -9737.1355    115.48572   -9516.9138    900.64157    3.1124137    2.4077551   0.70208949     2.355098 
    1052   -9737.1885     115.5077   -9517.5949    900.81297    3.1035369    2.3632769   0.70220572     2.398329 
    1053   -9737.1303    114.64939   -9518.0192     894.1192    3.0967169    2.3379642    0.7019758    2.4426451 
    1054     -9737.04    113.58623   -9515.8153    885.82798    3.1265881    2.3409538   0.70139539    2.5587881 
    1055   -9737.0548    113.36474   -9509.6139    884.10061    3.2144426    2.3674396   0.70046082     2.606257 
    1056   -9737.1246    113.75094   -9501.4747     887.1125    3.3304605    2.4010191   0.69921221      2.64941 
    1057   -9737.1039     113.7759   -9495.5837    887.30716    3.4134272    2.4216976   0.69760246    2.6948209 
    1058   -9737.0023    113.54097   -9494.6296    885.47497    3.4254748    2.4157599   0.69562919    2.7407169 
    1059   -9736.9741    114.08622   -9498.6157    889.72724    3.3687402    2.3825983   0.69329142    2.7862699 
    1060   -9737.0522    115.50453   -9506.4926    900.78824    3.2585201    2.3349809   0.69058979     2.824816 
    1061   -9737.0841    116.58371   -9516.8786    909.20446    3.1121846    2.2926711   0.68754238    2.8707569 
    1062   -9736.9946    116.66368    -9526.941    909.82816    2.9687062    2.2727136    0.6841358     2.912492 
    1063   -9736.9088    116.59996    -9532.786    909.33121    2.8848857    2.2813166   0.68037333    2.9536541 
    1064    -9736.943    117.19969   -9532.6006     914.0083    2.8879891    2.3110454   0.67625845     2.997915 
    1065   -9737.0096    117.79128   -9528.5617    918.62194    2.9460137    2.3445261   0.67179487     3.040132 
    1066   -9736.9593    117.38087   -9524.4468    915.42131     3.003459    2.3629517   0.66698551    3.0815389 
    1067   -9736.8529    116.38169   -9522.0707    907.62894    3.0355364    2.3553048   0.66183592    3.1244099 
    1068   -9736.8479    115.91664   -9521.0589    904.00217    3.0497658    2.3238865   0.65635095     3.170203 
    1069    -9736.922    115.89837   -9520.9012    903.85971    3.0530403    2.2831648    0.6505355    3.2804379 
    1070   -9736.9135     115.2872   -9521.1278    899.09332    3.0497195     2.252643   0.64439416    3.3713419 
    1071   -9736.7975    114.08522   -9519.8973    889.71942    3.0654707    2.2473683   0.63791888    3.4274869 
    1072   -9736.7374    113.55131   -9514.8923    885.55557    3.1353575    2.2705887   0.63112532    3.4838779 
    1073   -9736.8067    114.17629   -9506.4568    890.42964    3.2555558    2.3120848   0.62401655    3.5279179 
    1074    -9736.853    114.84085   -9498.2883    895.61239    3.3716578    2.3528528   0.61659537     3.579473 
    1075   -9736.7607    114.71299   -9494.0458     894.6152    3.4303114     2.374177   0.60886467     3.636735 
    1076    -9736.658     114.6454   -9494.4521     894.0881    3.4231185    2.3667647   0.60080899    3.6794639 
    1077   -9736.6921    115.58315   -9498.4542    901.40133    3.3670367    2.3353231   0.59245171    3.7225099 
    1078   -9736.7661    116.78617   -9505.2594    910.78337    3.2719046    2.2963114   0.58379857    3.7705569 
    1079   -9736.7102    117.01461   -9513.4681    912.56494    3.1551007     2.269868   0.58354629    3.8181851 
    1080   -9736.5814    116.60681   -9519.7616    909.38462    3.0643341    2.2821057   0.58584161     3.865366 
    1081   -9736.5644    116.79698   -9521.1139     910.8677    3.0449804    2.2973699   0.58803361     3.906944 
    1082   -9736.6479     117.4522   -9518.2904    915.97756     3.086067    2.3393742   0.59012048    3.9484639 
    1083   -9736.6377    117.25597   -9515.2143    914.44721     3.129397    2.3756708    0.5920904     4.056792 
    1084   -9736.5013    116.06542    -9514.772    905.16245    3.1337198    2.3884184   0.59393158     4.103492 
    1085    -9736.433    115.26197   -9516.9376    898.89657     3.102149    2.3710273   0.59563355    4.1492469 
    1086   -9736.5074    115.39841   -9520.7928    899.96064    3.0487135    2.3371352   0.59716878     4.189348 
    1087   -9736.5471    115.25155   -9525.8336    898.81529    2.9780324    2.3504853   0.59854994     4.229455 
    1088   -9736.4289    113.99536   -9530.2866    889.01867     2.913428    2.3609788   0.59977275     4.278003 
    1089   -9736.3004    112.69907   -9530.7079    878.90924    2.9056576    2.3660663   0.60083371     4.360615 
    1090   -9736.3228    112.52178   -9525.3893    877.52656    2.9811425    2.3651364   0.60172916    4.4171319 
    1091   -9736.3861    112.77277   -9516.9971    879.48395    3.1006448    2.3598421    0.6024328     4.462625 
    1092   -9736.3046    112.24167   -9510.0622    875.34209    3.1975037     2.356168   0.60296172     4.506916 
    1093   -9736.1451    111.45098   -9506.7002     869.1757    3.2427649    2.3579014   0.60331223    4.5495689 
    1094   -9736.1093     111.8336   -9506.3513    872.15966    3.2471908    2.3468204   0.60348276    4.5946269 
    1095   -9736.1815    113.26232   -9508.3631    883.30183    3.2197788    2.3475923    0.6034743    4.6341541 
    1096   -9736.1592    114.21693   -9512.2034    890.74659    3.1651884    2.3480284   0.60328073     4.673974 
    1097   -9736.0015     114.2622   -9515.4406    891.09963    3.1172063    2.3447864   0.60291579     4.714375 
    1098   -9735.8905     114.5906   -9514.4241    893.66072    3.1300046    2.3355289    0.6023836    4.8306699 
    1099   -9735.9163    115.77492   -9508.1704    902.89691    3.2187538    2.3200288   0.60168679    4.8777421 
    1100   -9735.9222    116.66512   -9499.8997    909.83938    3.3357275    2.3002253   0.60082602    4.9190631 
    1101   -9735.7777    116.33424   -9493.7078    907.25895     3.421195    2.3035679   0.60477743    4.9583521 
    1102   -9735.6081    115.67538   -9491.0965    902.12069    3.4557055    2.2984747   0.60966769     4.996937 
    1103   -9735.5755    115.90703   -9491.6059    903.92719     3.448045    2.2689125   0.61424545     5.044523 
    1104   -9735.6046    116.56488   -9494.9045    909.05759     3.401836    2.2284082   0.61851027    5.0836971 
    1105   -9735.5235    116.40247   -9500.1118    907.79104     3.327095    2.2082868   0.62246637    5.1221659 
    1106   -9735.3422    115.63285   -9504.1202      901.789    3.2678805     2.188539   0.62606275    5.1604519 
    1107   -9735.2581    115.53188   -9503.4976    901.00154    3.2754928    2.2094686   0.62936856     5.198806 
    1108   -9735.2911    116.14836   -9498.1704    905.80931    3.3512479    2.2503394   0.63239737    5.2371509 
    1109    -9735.255    116.06683   -9491.6738    905.17343    3.4425553    2.2931028   0.63516413    5.2755079 
    1110    -9735.093    114.71032   -9487.2579    894.59439    3.5026764    2.3191644   0.63768459     5.316565 
    1111   -9734.9334    113.34522   -9485.2485    883.94834    3.5288185    2.3185343   0.63985722     5.354857 
    1112   -9734.9144    112.95463   -9484.9858    880.90226    3.5322633    2.2948931   0.64181476    5.3931239 
    1113   -9734.9075    112.76175   -9486.5535    879.39802    3.5100099    2.2636766   0.64357409     5.492027 
    1114   -9734.7617    111.75781    -9489.589    871.56856    3.4650487    2.2442617   0.64515199    5.5362289 
    1115   -9734.5811    110.54048   -9491.9821    862.07493    3.4286731    2.2501116   0.64656473     5.585722 
    1116   -9734.4993    110.35251   -9491.8374    860.60906    3.4295624    2.2817778   0.64768161     5.627197 
    1117   -9734.4903    110.95082   -9490.5422    865.27507     3.447741    2.3262875   0.64865947    5.6716909 
    1118   -9734.3793    111.14812   -9491.5813    866.81379    3.4314863    2.3632588   0.64950857    5.7107921 
    1119   -9734.1645    110.92214   -9496.9578     865.0514    3.3524636    2.3748349   0.65565662    5.7566259 
    1120   -9734.0281    111.43539   -9506.1419    869.05411    3.2207364    2.3543271   0.66526625     5.809803 
    1121   -9733.9912    112.99751   -9517.9886    881.23669    3.0527844    2.3092844   0.67525358    5.8492129 
    1122   -9733.9142    114.42716   -9531.7158    892.38615    2.8576888    2.2871099    0.6855518     5.901926 
    1123     -9733.71    114.95664   -9545.2449    896.51543    2.6635953    2.2982394     0.696133     5.943944 
    1124   -9733.4981    115.34964   -9555.0276    899.58029    2.5223393     2.296609   0.70696635      5.98399 
    1125   -9733.4075    116.44819   -9558.9778    908.14759    2.4652305    2.2913873   0.71801777     6.103977 
    1126   -9733.3452    117.69056   -9558.6787    917.83646     2.468578    2.2926268   0.72927445     6.142648 
    1127   -9733.1823    117.99576    -9557.643    920.21669    2.4809138    2.3062367   0.74066903    6.1840589 
    1128   -9732.9521    117.53506   -9557.8299    916.62378     2.475018    2.3310648   0.75215649     6.229526 
    1129   -9732.7961    117.37961   -9559.0001    915.41148     2.456275    2.3594013   0.76368949    6.2815089 
    1130   -9732.7327    117.71938   -9560.5713    918.06124    2.4331722    2.3807449   0.77521982    6.3299949 
    1131   -9732.6208    117.66386   -9562.1677    917.62824    2.4090284      2.38704   0.78671339     6.370574 
    1132   -9732.4088    116.85993   -9562.4772    911.35867    2.4016585    2.3767538   0.79811104    6.4113529 
    1133    -9732.211    116.19919   -9559.4409    906.20572     2.441776    2.3557557   0.80937047    6.4619439 
    1134   -9732.1211    116.39579   -9552.6782    907.73892    2.5360835    2.3344963   0.82045294    6.5110259 
    1135   -9732.0531    116.83566   -9544.6631    911.16936    2.6484008    2.3229418   0.83132356    6.5509059 
    1136   -9731.8853    116.65938   -9538.4806    909.79463    2.7334056    2.3257529   0.84195828    6.5970399 
    1137   -9731.6701    116.25687   -9535.0493    906.65551    2.7788585    2.3400218   0.85232448     6.638191 
    1138    -9731.544    116.62054   -9533.3648    909.49169    2.8008857    2.3566281   0.86240201      6.74791 
    1139   -9731.4951     117.6315   -9532.5419    917.37589    2.8118245    2.3646654   0.87217687     6.799753 
    1140   -9731.3849    118.18336   -9532.0505     921.6797    2.8172109    2.3568575   0.88164125    6.8483899 
    1141   -9731.1827    117.93015   -9530.3294    919.70498    2.8386781    2.3332565   0.89079011    6.8880379 
    1142   -9731.0136    117.72298   -9525.1733    918.08934    2.9091586    2.3012955   0.89962785    6.9291999 
    1143   -9730.9429    118.08357   -9516.2666    920.90146    3.0340391    2.2721013   0.90815886    6.9676909 
    1144   -9730.8694    118.36214   -9506.1759    923.07397    3.1756139    2.2550121   0.91638882    7.0061901 
    1145   -9730.7059    117.95651   -9498.0782    919.91057    3.2877487    2.2530356    0.9243238    7.0459831 
    1146   -9730.5195    117.44825   -9493.2773    915.94678    3.3529656    2.2614329   0.93195542      7.09723 
    1147   -9730.4211    117.71665   -9491.5422    918.03995    3.3760968    2.2700677   0.93930435     7.139231 
    1148   -9730.3779    118.55119   -9492.5758     924.5483    3.3608783    2.2684545   0.94637613     7.183723 
    1149   -9730.2726    119.04513   -9495.8162    928.40039    3.3135944    2.2510349   0.95317565    7.2341819 
    1150   -9730.1009    119.09201   -9499.2928    928.76603    3.2620317    2.2200155   0.95970673     7.274657 
    1151   -9729.9756    119.48512   -9500.4732    931.83176    3.2435781    2.1842997   0.96595539    7.3722241 
    1152   -9729.9431    120.42353   -9498.8658    939.15016    3.2658364    2.1550315   0.97193857     7.420867 
    1153   -9729.8922    121.00002   -9496.5947    943.64603    3.2972146    2.1401285   0.97765437    7.4633069 
    1154   -9729.7429     120.6197    -9495.891    940.68003    3.3050496    2.1403984   0.98309904    7.5215609 
    1155    -9729.589    119.99436   -9496.9305    935.80316    3.2881844    2.1491143   0.98826735    7.5690069 
    1156   -9729.5399    119.96957   -9498.7673     935.6099    3.2615307    2.1552606   0.99314559     7.619328 
    1157   -9729.5339    120.13265   -9501.0775    936.88164    3.2287955     2.190101    0.9977351     7.659585 
    1158    -9729.442    119.58603   -9503.6503    932.61873     3.191134    2.2195275    1.0020294    7.6980851 
    1159   -9729.2877    118.56498   -9505.0268    924.65584       3.1695    2.2333928    1.0060224    7.7369769 
    1160   -9729.2086    118.13265   -9503.5209     921.2842    3.1896642    2.2351455     1.009709    7.7755139 
    1161   -9729.2215    118.44863   -9499.6268    923.74851    3.2448822    2.2335449    1.0130862     7.814296 
    1162   -9729.1908    118.55428   -9495.9597    924.57241    3.2962769    2.2383232    1.0161513    7.8563941 
    1163   -9729.0619    118.04774   -9494.4744    920.62202    3.3154466    2.2553435    1.0189045     7.912667 
    1164   -9728.9542    117.77286   -9494.9339    918.47832    3.3074308    2.2835855    1.0213483    8.0224349 
    1165   -9728.9578    118.34209   -9496.4023    922.91758    3.2867274    2.3154484     1.023487     8.069474 
    1166   -9728.9774     119.0312   -9498.6479    928.29177    3.2552672    2.3404239    1.0253294     8.107846 
    1167   -9728.8908    118.97671   -9501.1251    927.86682    3.2190328    2.3504768    1.0268788    8.1462641 
    1168   -9728.7595    118.68542   -9501.9237    925.59513    3.2058916    2.3443566    1.0281417     8.184906 
    1169   -9728.7333    119.22049   -9499.4985    929.76797    3.2397957    2.3285161    1.0291239    8.2235119 
    1170   -9728.7935    120.34024   -9495.0539    938.50062    3.3034632     2.314119    1.0298305    8.2633359 
    1171    -9728.776    120.78436   -9491.5479    941.96421    3.3527668    2.3116741    1.0302694     8.301697 
    1172   -9728.6533    120.31906   -9490.2699    938.33546     3.369094    2.3259405    1.0304392     8.340312 
    1173   -9728.5824    120.08567   -9489.8351    936.51528    3.3742371    2.3535724    1.0303416    8.3794661 
    1174   -9728.6384    120.62411   -9488.6858    940.71445    3.3912727    2.3846234    1.0299772     8.417937 
    1175   -9728.6853    120.93938   -9486.7221    943.17312    3.4196884    2.4073034    1.0293456     8.456387 
    1176   -9728.6075    120.21465   -9483.7693    937.52121    3.4603196     2.413737    1.0284515    8.4948459 
    1177    -9728.512    119.21723   -9478.4071    929.74255    3.5347555    2.4038474    1.0272859     8.594945 
    1178   -9728.5413    118.98889   -9470.0269    927.96184    3.6536076     2.385392    1.0258458    8.6333349 
    1179   -9728.6235    119.10263    -9460.988    928.84882    3.7825162    2.3700767    1.0241282    8.6716669 
    1180   -9728.5959    118.54578   -9454.8014     924.5061    3.8695621    2.3676754    1.0221306      8.70997 
    1181   -9728.4914    117.69187   -9452.6138    917.84671    3.8990024    2.3810634     1.019858    8.7483981 
    1182   -9728.4928    117.82085   -9453.0534    918.85259    3.8928101    2.4046407    1.0173048    8.7867069 
    1183   -9728.6153    118.89207   -9454.9569    927.20676    3.8676398    2.4269888    1.0144735    8.8252549 
    1184   -9728.6709     119.4161   -9458.1623    931.29349    3.8231229    2.4364696    1.0113689     8.868942 
    1185   -9728.5831    118.82066   -9461.5353    926.64985    3.7742107    2.4269984    1.0079971    8.9107819 
    1186    -9728.522    118.36844   -9462.6722    923.12305    3.7572785    2.4010975    1.0043691     8.957489 
    1187   -9728.6156    119.01133   -9460.9025    928.13683    3.7836146    2.3687216    1.0004887     8.998668 
    1188    -9728.729     119.8008   -9458.8658    934.29367    3.8140011    2.3424103   0.99636509    9.0403669 
    1189   -9728.6974    119.56415   -9459.5311    932.44811    3.8041508    2.3312601   0.99200828    9.1333809 
    1190   -9728.6139    118.94493   -9462.8198    927.61899     3.756492    2.3366795   0.98742951    9.1718929 
    1191   -9728.6689    119.27709   -9466.6333    930.20939    3.7033722    2.3519231    0.9826433    9.2103379 
    1192   -9728.8201     120.2521   -9470.0145     937.8132    3.6577225    2.3656304   0.97765806    9.2487581 
    1193   -9728.8633    120.45528   -9473.1142     939.3978    3.6145251    2.3674918   0.97248352    9.2875919 
    1194   -9728.7898    119.85869   -9474.8042    934.74513    3.5896015    2.3534507   0.96712706     9.336164 
    1195   -9728.8098    119.87966    -9473.111    934.90871    3.6138138    2.3277738   0.96159369    9.3747571 
    1196   -9728.9811    120.83127   -9468.3927    942.33004    3.6829184    2.3009171   0.95589203    9.4132991 
    1197   -9729.1059    121.20895   -9463.7481    945.27541    3.7503259     2.284447   0.95001816    9.4519029 
    1198   -9729.0681     120.1684   -9461.2643    937.16052    3.7848956    2.2863443   0.94397256     9.490293 
    1199   -9729.0369    118.95018   -9459.8462    927.65989    3.8044965    2.3031833   0.93775381    9.5289171 
    1200   -9729.1751    118.78597   -9457.8589     926.3793    3.8345354    2.3259718   0.93135766    9.5778489 
    1201   -9729.3449    118.94792   -9455.8772    927.64232     3.864943    2.3445779   0.92478277    9.6189799 
    1202   -9729.3651    118.27699    -9455.169     922.4099    3.8752383    2.3479654   0.91801026    9.6601429 
    1203   -9729.3212    117.45932   -9455.0236    916.03308    3.8766732    2.3335122   0.91102448    9.7004509 
    1204   -9729.4261    117.96407   -9454.0614     919.9695    3.8917545    2.3073457    0.9038073     9.793272 
    1205   -9729.6596    119.43924   -9453.2682    931.47399    3.9062647    2.3176769   0.89633942    9.8317559 
    1206   -9729.7793    120.14218   -9455.0421    936.95603    3.8828854    2.3231876   0.88860912    9.8703239 
    1207    -9729.764    119.65803   -9459.4355    933.18026    3.8205769    2.3640614    0.8805907      9.91291 
    1208   -9729.8235    119.30591   -9463.4794    930.43419    3.7642646    2.3993907   0.87226801    9.9540761 
    1209   -9730.0341    119.57847   -9464.7205     932.5598    3.7497023    2.4165489   0.86362734    9.9951611 
    1210   -9730.2189    119.16347     -9463.25    929.32328    3.7730951    2.4112175   0.85465805    10.041675 
    1211   -9730.2252    117.29313   -9459.5931    914.73705    3.8248684    2.3894043   0.84536241    10.083615 
    1212     -9730.22      115.244    -9453.338    898.75647    3.9131982    2.3644906   0.83572762    10.122152 
    1213   -9730.3797    114.42543   -9445.2767    892.37267    4.0293876     2.350468    0.8257546    10.161504 
    1214    -9730.595    114.23756   -9439.1445    890.90749    4.1190958    2.3551303   0.81544876    10.200468 
    1215   -9730.6714    113.41522   -9438.7448    884.49429    4.1258247    2.3763766   0.80482015    10.246892 
    1216   -9730.6542    112.48972   -9444.0389    877.27659      4.05076    2.4033357   0.79396004     10.28831 
    1217   -9730.7648    113.01947   -9452.0602    881.40796    3.9389584    2.4218227   0.79511203    10.334085 
    1218   -9731.0055    114.93995   -9460.8705    896.38525    3.8178425    2.4213526   0.79621861    10.384171 
    1219   -9731.1592    116.55186   -9470.4722    908.95611    3.6843141    2.4004776   0.79727809    10.478587 
    1220   -9731.1645    117.22867   -9480.1455    914.23437    3.5476737    2.3675656   0.79828796    10.523216 
    1221   -9731.2196    118.22412   -9487.7415    921.99756    3.4410983    2.3365877   0.79928888    10.577738 
    1222   -9731.4447    120.17459    -9492.641    937.20877    3.3750349    2.3202162   0.80023618     10.61792 
    1223   -9731.6634    121.71614    -9497.003    949.23085    3.3164771    2.3236903   0.80112816     10.65624 
    1224   -9731.7125     121.6776   -9502.4617    948.93032    3.2400229    2.3424124   0.80196156    10.694586 
    1225   -9731.7348    121.04574    -9507.397     944.0026    3.1705874    2.3641997   0.80273038    10.732916 
    1226   -9731.9269    121.23751   -9509.1873    945.49814    3.1479982    2.3751819   0.80346336     10.77153 
    1227   -9732.2039    121.62194   -9507.7367    948.49628    3.1724152    2.3666679   0.80411156    10.809942 
    1228   -9732.3344    120.64707   -9504.5687     940.8935    3.2190332    2.3394774   0.80466331    10.848463 
    1229   -9732.3434    118.66133   -9499.7542    925.40729    3.2872052    2.3034202   0.80510737    10.887098 
    1230   -9732.4723    117.53269   -9492.5753    916.60531    3.3904857    2.2721952   0.80543351    10.925788 
    1231   -9732.7571    117.65778   -9484.9128    917.58081    3.5028052    2.2565054   0.80565362    10.964753 
    1232   -9732.9705    117.47758   -9480.9737    916.17551    3.5614927    2.2588733   0.80573628    11.064215 
    1233   -9733.0164    116.29666   -9482.7184    906.96584    3.5374845    2.2724382   0.80567098    11.103359 
    1234    -9733.097    115.47647   -9487.8378    900.56942    3.4662707    2.2915156   0.80544625    11.143994 
    1235   -9733.3569    115.97533   -9493.1915    904.45985      3.39428    2.3392948   0.80505019    11.190288 
    1236   -9733.6285    116.58948    -9497.978    909.24943    3.3304697    2.3805392   0.80446875    11.228742 
    1237   -9733.7232    115.98868   -9502.2199    904.56398    3.2718572    2.4055175   0.80369451    11.271378 
    1238   -9733.7566      114.997   -9504.5082    896.83012    3.2399882    2.4119659   0.80271925    11.315494 
    1239   -9733.9464    115.13735   -9503.8738    897.92472    3.2516372    2.4063376   0.80153694    11.362307 
    1240   -9734.2328    115.96994   -9502.5867    904.41782    3.2738748    2.4006001   0.80014345    11.400777 
    1241    -9734.382     115.8635   -9504.2944    903.58775    3.2518488    2.4062433   0.79852083    11.439089 
    1242   -9734.3941    114.87282   -9509.5808    895.86171    3.1773057    2.4284562   0.79668326    11.477623 
    1243   -9734.5016    114.74782   -9515.6367    894.88683    3.0932384    2.4634492   0.79462995    11.516049 
    1244   -9734.7723    116.05292   -9520.2785    905.06499    3.0314604    2.5001594   0.79236084    11.558046 
    1245   -9735.0005    117.32012   -9523.7803    914.94755    2.9851941    2.5256843   0.78987661    11.651183 
    1246   -9735.0645    117.58601   -9526.3555    917.02116    2.9497032    2.5317916   0.78717587    11.690554 
    1247   -9735.1312    117.89227   -9526.5603     919.4096    2.9477514    2.5191252   0.78426315    11.728935 
    1248   -9735.3647    119.22535   -9523.8041    929.80593    2.9900054    2.4969979   0.78114111    11.767246 
    1249   -9735.6412    120.51627    -9520.446    939.87345     3.041373    2.4787796   0.77781287    11.805593 
    1250   -9735.7568    120.20955   -9519.2247    937.48139    3.0602688    2.4752858   0.77428188    11.844195 
    1251   -9735.7735     118.7905   -9519.6138     926.4146    3.0550043    2.4894541   0.77056315    11.884466 
    1252   -9735.9148    117.96223   -9518.8363    919.95518     3.067991    2.5149092   0.76664803      11.9257 
    1253   -9736.1814    117.88729   -9515.7464    919.37076    3.1154288    2.5390942   0.76254033    11.966276 
    1254   -9736.3552    117.17497   -9511.5028    913.81551    3.1778593    2.5494809    0.7582441    12.004721 
    1255   -9736.3794    115.55214   -9506.7198    901.15952    3.2458005    2.5398045   0.75376383    12.046128 
    1256   -9736.4515    114.56822   -9500.6998    893.48622    3.3319008    2.5131831   0.74911849    12.098474 
    1257   -9736.6958    115.01939    -9494.348     897.0048    3.4251234    2.4805433   0.74429964    12.139635 
    1258   -9736.9317    115.53433   -9491.0664    901.02065    3.4748364    2.4551519   0.73931513    12.180782 
    1259   -9736.9843    114.83632   -9493.0232    895.57709    3.4479254    2.4460617   0.73417433    12.221619 
    1260   -9736.9904    113.87498    -9498.028    888.07979    3.3772778    2.4537151   0.72888804     12.31657 
    1261   -9737.1549     114.1637   -9501.9841    890.33149    3.3236906    2.4697907   0.72347993    12.361773 
    1262   -9737.4067    115.14072   -9503.2096    897.95099    3.3099287    2.4813412   0.71794993    12.409455 
    1263    -9737.512    115.10176   -9502.2636    897.64712    3.3247874    2.4771751   0.71231118    12.450714 
    1264   -9737.4826    114.07197    -9498.996    889.61606    3.3705522    2.4534042   0.70657685    12.492432 
    1265    -9737.563    113.63949   -9492.7895    886.24333    3.4594057    2.4153362   0.70075965    12.539375 
    1266   -9737.7879    114.06435   -9485.5098    889.55664    3.5654704    2.3747372   0.69488248    12.578613 
    1267   -9737.9279     113.7812   -9481.1283    887.34845    3.6293717    2.3439824   0.68894242    12.617324 
    1268   -9737.8861    112.25252   -9481.2535    875.42673    3.6270108    2.3300117    0.6829483    12.655943 
    1269   -9737.8736    111.11857   -9483.4375    866.58334    3.5959691    2.3311616    0.6769073    12.694397 
    1270   -9738.0524    111.56834   -9484.9206    870.09101    3.5775348    2.3381757   0.67082511    12.732951 
    1271   -9738.2342    112.49339   -9485.7293    877.30519    3.5686739    2.3388249   0.66698354    12.771406 
    1272   -9738.2346    112.51789   -9486.9328    877.49629    3.5516703    2.3240697   0.66957781    12.809857 
    1273   -9738.1727    112.41454   -9487.8852    876.69024    3.5373358    2.3007491   0.67184194    12.903549 
    1274   -9738.2728    113.65369   -9487.8131    886.35402      3.53977    2.3077159   0.67378815    12.943202 
    1275   -9738.4813    115.65592   -9488.5539    901.96885    3.5322455    2.3117951   0.67542689    12.982057 
    1276   -9738.5454    116.57531   -9492.7021    909.13893    3.4745247    2.3149632   0.67669454     13.03526 
    1277   -9738.4682    116.24831   -9499.4562    906.58878    3.3779785    2.3192711   0.67767116    13.090028 
    1278   -9738.4882    116.25608   -9504.7368    906.64937    3.3036291     2.325656   0.67836231    13.131489 
    1279   -9738.6644     117.0016   -9505.7269    912.46346    3.2921262    2.3335219   0.67877264    13.177608 
    1280   -9738.7749    116.97571   -9502.8748    912.26156    3.3339973    2.3410113   0.67890622    13.217259 
    1281   -9738.7034    115.49096   -9497.2348     900.6824     3.412698    2.3458729   0.67873025    13.256117 
    1282   -9738.6506    114.02464   -9488.8535    889.24697    3.5304052    2.3466968   0.67828514    13.307777 
    1283   -9738.7772    113.80056   -9479.1024    887.49946    3.6700069    2.3435428   0.67757327    13.355523 
    1284   -9738.9268    113.82901   -9471.9391     887.7213    3.7733614    2.3380019   0.67659596    13.401952 
    1285   -9738.9056    112.82352   -9470.3101    879.87977    3.7960837    2.3324647   0.67535337    13.440361 
    1286   -9738.8189    111.58731     -9472.62     870.2389    3.7622128    2.3289679    0.6738347    13.534401 
    1287   -9738.8869    111.65015   -9474.9133    870.72898    3.7307624     2.328347   0.67204949    13.583135 
    1288   -9739.0503    112.59283   -9475.4067    878.08066    3.7260988    2.3297842   0.66999611    13.624309 
    1289   -9739.0776    112.75643   -9474.7514    879.35656    3.7357454    2.3312745   0.66767306    13.665481 
    1290   -9738.9712    112.08496   -9472.9833    874.11993    3.7592308    2.3306129   0.66507893     13.70678 
    1291   -9738.9553    112.15049   -9469.3147    874.63098     3.810855    2.3264502   0.66224494    13.747857 
    1292   -9739.0924     113.3517   -9465.0162     883.9989    3.8735442    2.3189349   0.65913679    13.788221 
    1293   -9739.1743    114.17655    -9463.434    890.43165    3.8970634    2.3095623   0.65575179    13.832169 
    1294   -9739.0875    113.77016   -9465.8959     887.2624    3.8610417    2.3003751   0.65208676    13.888001 
    1295   -9739.0136    113.33626   -9469.6491     883.8785    3.8069521    2.2928846   0.64813859    13.932309 
    1296   -9739.1065    113.95202   -9471.1161    888.68061    3.7875327    2.2872707   0.64396133    13.972767 
    1297   -9739.2288    114.60589   -9469.4379    893.77996    3.8129792     2.282165   0.63949688     14.01334 
    1298   -9739.1828    113.92362   -9465.4271    888.45916     3.869014    2.2752852   0.63831476    14.061836 
    1299   -9739.0523    112.59709   -9459.1072     878.1139    3.9564886    2.2644539   0.63976906    14.100668 
    1300   -9739.0634    112.32034   -9450.8782    875.95565    4.0729469    2.2485901   0.64111786    14.193935 
    1301   -9739.1852    113.06689   -9443.9408    881.77775    4.1727169    2.2282072   0.64232281    14.232567 
    1302   -9739.2023    113.33307   -9442.5804    883.85359     4.192184    2.2049977   0.64341528    14.271644 
    1303   -9739.0808    112.88123   -9447.4723    880.32984    4.1213286    2.1810726   0.64439107    14.316426 
    1304   -9739.0328    113.15544    -9454.963    882.46832    4.0147845    2.1579047   0.64524525     14.37186 
    1305   -9739.1506    114.67067    -9461.329     894.2852    3.9264774     2.152383   0.64597188    14.412468 
    1306    -9739.231    115.96446    -9465.616    904.37512    3.8670247    2.1647884   0.64657099    14.450872 
    1307   -9739.1368    115.95624   -9467.9264    904.31104    3.8330417    2.1601168   0.64702617    14.489531 
    1308   -9739.0257     115.6997    -9467.585     902.3103    3.8362957     2.136724   0.64732711    14.540005 
    1309   -9739.0842    116.44135   -9465.0315    908.09423     3.873211    2.1920814   0.64746279    14.587587 
    1310   -9739.2016    117.37194   -9463.4663    915.35168    3.8969927    2.2589863    0.6474222    14.626468 
    1311   -9739.1642    117.00377   -9465.9746    912.48042    3.8610135    2.3133904   0.64721974    14.664887 
    1312   -9739.0293    115.78006   -9471.6905    902.93698     3.778324    2.3396397   0.64682106    14.703395 
    1313    -9739.023    115.36727   -9476.9596     899.7178    3.7037659    2.3358493   0.64621729    14.805692 
    1314   -9739.1485    115.84801   -9479.8239    903.46696    3.6650577     2.314834   0.64539983    14.846009 
    1315   -9739.1829     115.6719   -9481.1303    902.09347    3.6470803     2.297463   0.64435992    14.891221 
    1316     -9739.06    114.42762   -9481.6544    892.38972     3.637937     2.301893   0.64761694     14.93591 
    1317   -9738.9891    113.60676   -9481.0957    885.98808    3.6448308    2.3342039   0.65226132     14.97432 
    1318   -9739.0883    114.06139   -9480.5259    889.53361    3.6542854    2.3849788   0.65662582    15.013007 
    1319   -9739.1831    114.55048   -9483.1641     893.3479    3.6183385    2.4338473   0.66072267    15.052508 
    1320   -9739.1153    113.87978   -9490.7517    888.11726    3.5101441    2.4598165   0.66456434     15.09877 
    1321   -9739.0016    112.93559    -9500.704    880.75378    3.3678822    2.4520871   0.66808491    15.139782 
    1322   -9739.0425    113.05913   -9508.8054    881.71726    3.2539616    2.4158624   0.67137309    15.185354 
    1323   -9739.1585    113.66239   -9513.2622    886.42186    3.1926121    2.3698068   0.67443989    15.225884 
    1324   -9739.1309    113.20911   -9514.5522    882.88689    3.1739915    2.3368492   0.67729449     15.27229 
    1325   -9738.9889    111.88418   -9512.6461     872.5541    3.1989225    2.3329832   0.67994333    15.313423 
    1326    -9738.956    111.28037   -9507.2222    867.84513    3.2751139    2.3596796   0.68233153    15.359828 
    1327   -9739.0668    111.58025   -9500.4242    870.18388    3.3727572    2.4035264   0.68451476     15.41223 
    1328   -9739.0931    111.22766   -9496.1832    867.43413    3.4330677    2.4428529    0.6864885    15.455288 
    1329    -9738.945    109.71177   -9495.9727     855.6121    3.4339486    2.4584726   0.68824538    15.569075 
    1330   -9738.8289    108.62666   -9497.3276    847.14958    3.4131606    2.4432525   0.68977618    15.612538 
    1331   -9738.8899    109.10665   -9497.5259    850.89291    3.4112189    2.4057209   0.69105775    15.657766 
    1332   -9738.9621    110.02323   -9496.6736    858.04111    3.4242848    2.3658607   0.69209169    15.701105 
    1333   -9738.8565     110.0279    -9495.815    858.07753    3.4349282    2.3451056   0.69286643    15.739692 
    1334   -9738.6921    109.87098   -9494.3095    856.85376     3.453882    2.3555057   0.69336949    15.779796 
    1335   -9738.6892    110.96163   -9491.4157    865.35943    3.4947397     2.393306   0.69358747    15.818345 
    1336   -9738.7812    112.70723   -9489.0393    878.97284    3.5296253    2.4402735   0.69351319    15.857992 
    1337   -9738.7304    113.31948   -9489.9966    883.74761    3.5153772    2.4724333   0.69312571    15.899927 
    1338   -9738.5368     112.7558   -9493.8387    879.35162    3.4583402    2.4719701   0.69241242    15.946225 
    1339   -9738.4399    112.71531    -9497.004    879.03588    3.4122364    2.4490543   0.69136342    15.987616 
    1340   -9738.5079    113.68917    -9497.255    886.63076    3.4096488    2.4371496   0.68997249    16.026184 
    1341   -9738.5153    114.15591   -9495.5409    890.27069    3.4339781    2.3924267   0.68822936    16.069503 
    1342   -9738.3366    113.30903   -9493.0718    883.66614    3.4663508    2.3334498   0.68614311     16.11012 
    1343   -9738.1637    112.62196   -9489.2825    878.30788      3.51746    2.2867298   0.68371866    16.217564 
    1344   -9738.1828    113.45799   -9484.3554    884.82787    3.5873657    2.3061949   0.68096337    16.256732 
    1345   -9738.2564    114.77252   -9481.3331    895.07946    3.6311199    2.3277882   0.67788656    16.298049 
    1346   -9738.1461    114.89406   -9483.0856    896.02737     3.604793    2.3298192   0.67446262    16.355982 
    1347   -9737.9359    114.33052   -9488.4356    891.63246    3.5262115    2.3000985   0.67073969    16.400654 
    1348   -9737.8763    114.82757   -9493.5258    895.50878     3.453428    2.3183855   0.66673238    16.447626 
    1349   -9737.9572    116.27977   -9496.4372    906.83414    3.4134234     2.340207   0.66245674    16.488425 
    1350   -9737.9289    116.86514    -9497.821    911.39923    3.3934667     2.326843   0.66008718    16.527114 
    1351   -9737.7221    116.21937   -9497.5435     906.3631     3.394466    2.3021757   0.66802485    16.574508 
    1352   -9737.5948    116.01318   -9494.2791    904.75506     3.438803    2.2901344   0.67575383    16.614968 
    1353   -9737.6594     116.9479   -9488.9588    912.04467    3.5149072    2.2694457   0.68326061    16.656389 
    1354   -9737.6874    117.42402   -9485.6521    915.75785    3.5620375    2.2543746   0.69053328    16.701549 
    1355   -9737.5159    116.33257   -9487.1194     907.2459    3.5388756    2.2564074   0.69756153    16.742771 
    1356    -9737.323    115.13691   -9491.5814    897.92124     3.473089    2.2786668    0.7043612    16.836117 
    1357   -9737.3368    115.47078    -9495.824    900.52501    3.4133227    2.3141198   0.71090417    16.876999 
    1358   -9737.4199    116.44714   -9499.2811     908.1394     3.365637    2.3489719   0.71718736    16.918432 
    1359   -9737.3192    116.30731   -9502.9282    907.04889    3.3126681    2.3693629   0.72321089    16.973633 
    1360   -9737.1096    115.51181   -9505.9846    900.84499    3.2665103    2.3684455   0.72897774    17.014222 
    1361   -9737.0545     115.8891   -9506.9272    903.78741    3.2524098    2.3500454   0.73451478    17.065738 
    1362    -9737.154    117.34289   -9507.1081     915.1251    3.2512596    2.3267111   0.73980728    17.116396 
    1363   -9737.1366     117.9027   -9509.8931    919.49093    3.2116521    2.3134972   0.74486101    17.157461 
    1364   -9736.9366    117.03524   -9515.8705    912.72583    3.1243477    2.3204859     0.749681    17.198681 
    1365   -9736.8094    116.45755   -9521.7199    908.22056    3.0398783    2.3478583   0.75427156     17.24084 
    1366   -9736.8825    117.04915   -9524.6049    912.83431    3.0001376    2.3857466   0.75865069    17.287537 
    1367    -9736.937    117.26925   -9525.0066    914.55083    2.9952307    2.4189213   0.76280881    17.333159 
    1368   -9736.7838    115.85009    -9524.039    903.48318    3.0067414    2.4343865   0.76674989    17.383724 
    1369   -9736.5907    114.09975   -9520.9124    889.83271    3.0482009    2.4279626   0.77047747    17.427463 
    1370   -9736.5948    113.81195   -9515.4733    887.58825    3.1251301    2.4064723   0.77399402    17.472106 
    1371   -9736.6884    114.35062   -9511.1959     891.7892    3.1869065    2.3843551   0.77729612    17.578739 
    1372   -9736.6094    113.92483   -9512.5142    888.46861    3.1671575    2.3764178   0.78038608    17.623146 
    1373   -9736.3943    112.83949   -9519.6403    880.00431     3.063404    2.3905597   0.78326028    17.667734 
    1374    -9736.317    113.06745   -9528.7576    881.78208    2.9334556    2.4238011   0.78591386    17.712575 
    1375   -9736.4217    114.86209   -9536.9558    895.77806    2.8190708    2.4635766    0.7883418    17.756364 
    1376   -9736.4356    116.26323   -9544.0616    906.70513    2.7188388    2.4937977   0.79052192    17.800488 
    1377   -9736.2487    116.33433   -9549.6501    907.25962    2.6372142    2.5027075   0.79246814    17.844216 
    1378   -9736.0958    116.58093    -9551.628     909.1828    2.6071002    2.4888496    0.7941778    17.889597 
    1379   -9736.1528    118.08658   -9549.5844    920.92493    2.6367889     2.461793   0.79564874    17.933936 
    1380   -9736.2286    119.39001   -9546.6591    931.09007    2.6792027    2.4684332   0.79687903    17.975085 
    1381   -9736.0957    118.85648   -9545.7104    926.92921    2.6907333    2.5152463   0.79786548    18.014329 
    1382   -9735.8887    117.45728   -9545.3262    916.01718    2.6932362    2.5492858   0.79860833    18.059405 
    1383   -9735.8719    117.12024   -9542.0857     913.3887     2.738797    2.5631185   0.79910759    18.097857 
    1384   -9735.9775    117.48348   -9535.3899    916.22153    2.8349223    2.5577268     0.799365    18.143863 
    1385   -9735.9236     116.7049   -9527.2948    910.14961    2.9485698    2.5420874   0.79938419    18.189475 
    1386   -9735.7054    114.91245   -9518.6334    896.17077    3.0678981    2.5286635   0.79918542    18.285077 
    1387   -9735.6109    114.21748   -9508.8204    890.75088    3.2052511    2.5272273   0.79876028     18.33554 
    1388   -9735.7189    115.19221   -9499.5088    898.35251     3.338378    2.5401402   0.79811558     18.37415 
    1389   -9735.7572    115.92264   -9494.8317    904.04895    3.4050215     2.561328   0.79725791    18.419198 
    1390   -9735.5803    115.32555   -9496.5431    899.39242    3.3783347    2.5793854   0.79619336    18.457563 
    1391   -9735.4179    114.96952   -9501.5375    896.61585    3.3054523     2.583292   0.79494659    18.496123 
    1392   -9735.4793    116.21462    -9505.954    906.32603    3.2439021    2.5679157   0.79350472    18.541085 
    1393   -9735.5807    117.69525   -9509.1993    917.87304    3.1994682     2.536583   0.79187393    18.587509 
    1394   -9735.4689    117.55785   -9512.0345    916.80152    3.1578177    2.4994453   0.79006084     18.62864 
    1395   -9735.2668    116.55247   -9513.2069     908.9608    3.1383923    2.4721113   0.78807212    18.669751 
    1396   -9735.2502    116.58789    -9511.187    909.23703    3.1667059    2.4518564   0.78593125    18.709099 
    1397   -9735.3707    117.30143   -9508.0097    914.80174    3.2133139    2.4496178   0.78362627    18.755814 
    1398   -9735.3337    116.67444   -9507.7307    909.91204    3.2167333    2.4539287   0.78116115    18.802306 
    1399   -9735.1131    114.63067   -9511.2597    893.97322    3.1637405    2.4525737   0.77853885    18.914835 
    1400   -9734.9996    113.35363   -9515.7192    884.01394    3.0991098    2.4348196   0.77576199    18.957283 
    1401   -9735.0976    113.71525   -9519.1713    886.83412    3.0517057    2.3965353   0.77283877    18.996056 
    1402   -9735.1425    113.99282   -9522.6901    888.99885     3.002609    2.3863879   0.76976817    19.043837 
    1403   -9734.9669    113.07288   -9526.8482    881.82445    2.9413602     2.380309   0.76655546    19.082918 
    1404   -9734.7943    112.47389   -9529.5241    877.15309    2.9011034    2.3534046   0.76320668    19.127726 
    1405   -9734.8475    113.62409   -9529.3287    886.12321    2.9046167    2.3134147   0.75972798    19.172898 
    1406   -9734.9542    115.16851   -9528.6221    898.16769    2.9161103    2.2747837   0.75611333    19.214315 
    1407   -9734.8435    115.05351   -9530.2763    897.27088    2.8911659    2.2515856   0.75237915    19.255346 
    1408    -9734.611    113.88466   -9533.1003    888.15528    2.8479696    2.2508418   0.74852888    19.296426 
    1409   -9734.5517    113.78175   -9533.4387    887.35278    2.8423485    2.2696689   0.74456548    19.337022 
    1410   -9734.6512    114.75442   -9530.2744    894.93833    2.8884767    2.2969222   0.74049204    19.377941 
    1411   -9734.6101    114.88915   -9525.4641    895.98907    2.9558802    2.3185861   0.73629018    19.417116 
    1412   -9734.3809     113.8753   -9519.5265    888.08233    3.0365568    2.3249081   0.73198639    19.455685 
    1413   -9734.2456    113.63172   -9510.9153    886.18268    3.1563474    2.3152948   0.72758388    19.504638 
    1414   -9734.3247    114.88101   -9500.1123    895.92561    3.3101455    2.2986631   0.72308435    19.600515 
    1415   -9734.3639     115.7113   -9490.8974    902.40076    3.4409336    2.2888427   0.71848741    19.639275 
    1416    -9734.165     114.7656   -9485.6753    895.02556    3.5119267    2.2976224   0.71376287    19.678805 
    1417     -9733.94    113.54868   -9482.2986    885.53511    3.5564715    2.3290176   0.70893553     19.71864 
    1418   -9733.9321    113.87942   -9477.5191    888.11444    3.6239076    2.3769282   0.70400122    19.757344 
    1419   -9734.0018    114.86605    -9471.507    895.80888    3.7098621    2.4275102   0.69895665    19.795592 
    1420   -9733.8722    114.59342   -9466.3946    893.68275    3.7802848    2.4654824   0.69380023    19.834005 
    1421   -9733.6051      113.562   -9462.1572    885.63895    3.8363977    2.4815963   0.68851422    19.877054 
    1422   -9733.5014    113.89444    -9457.372    888.23156     3.902563    2.4773922   0.68311939    19.923739 
    1423   -9733.5758    115.68321   -9453.2766    902.18175    3.9614953    2.4644818   0.67761882    19.964021 
    1424   -9733.5343    116.79535   -9453.3707    910.85499    3.9595765    2.4587222   0.67201609    20.010598 
    1425   -9733.2861    116.46379   -9458.3543    908.26926    3.8856352    2.4722053   0.66631527     20.05023 
    1426   -9733.0924    116.44667    -9464.579    908.13574    3.7949252    2.5070137   0.66052286    20.099817 
    1427   -9733.1141    117.79585   -9468.6587     918.6576    3.7375716    2.5537328     0.654643    20.199688 
    1428   -9733.1266    118.90248   -9470.8592    927.28795    3.7066485    2.5957886   0.64868436     20.23872 
    1429   -9732.9112     118.2467    -9472.485    922.17367    3.6806278    2.6175829   0.64265794    20.280125 
    1430    -9732.647    117.06801   -9472.8237    912.98136    3.6721053    2.6124097   0.63657661    20.327028 
    1431   -9732.5878    117.28929   -9471.2523    914.70713     3.693479     2.585997   0.63045804    20.366092 
    1432   -9732.6369    118.25359   -9470.3561    922.22737    3.7068389    2.5537063    0.6243099    20.405851 
    1433   -9732.5066    117.96532   -9473.5147    919.97927     3.660356     2.532962   0.61814415    20.444444 
    1434   -9732.2208     116.6139   -9480.1526    909.43991    3.5625026    2.5346383   0.61197121    20.482982 
    1435   -9732.0759    116.29144   -9486.3124    906.92512    3.4733981    2.5577778   0.60580033    20.522178 
    1436   -9732.1149    117.41973   -9489.7964     915.7244    3.4247097    2.5901813   0.59963603    20.562466 
    1437   -9732.0637    118.04325   -9491.8432    920.58704    3.3950573    2.6145426   0.59349025     20.60089 
    1438   -9731.7969    117.25637   -9493.3248    914.45032    3.3703483    2.6171345   0.58737241    20.639493 
    1439   -9731.5628    116.75586   -9492.7919    910.54701    3.3745708    2.5947275   0.58394217    20.683097 
    1440   -9731.5516    117.83869   -9489.7344    918.99173    3.4176232    2.5562432   0.58584261    20.776799 
    1441   -9731.5616    119.09987    -9486.804    928.82735    3.4591808    2.5182868   0.58741295    20.815082 
    1442   -9731.3556    118.79925   -9486.2973    926.48287    3.4634312    2.4969481   0.58867328    20.853493 
    1443   -9731.0649    117.83219   -9486.3644    918.94099    3.4583744    2.4998508    0.5896394    20.896744 
    1444   -9730.9656    118.13384   -9483.4309    921.29347    3.4984297    2.5224389   0.59032523    20.935275 
    1445    -9730.999    119.28231   -9477.0985     930.2501    3.5883985    2.5501347   0.59074174    20.973722 
    1446   -9730.8705    119.21188    -9469.781    929.70083    3.6900023    2.5653721   0.59088859     21.01223 
    1447   -9730.5664    117.78147   -9462.3299    918.54545    3.7910113    2.5562653   0.59077956     21.05735 
    1448   -9730.3722    116.99775   -9453.5314    912.43345    3.9126168    2.5224056   0.59041873    21.105444 
    1449   -9730.3749    117.53782   -9444.1199    916.64531     4.045667    2.4749538   0.58981047     21.15123 
    1450   -9730.3149    117.65106   -9437.7457    917.52844    4.1349058    2.4308718   0.58896038    21.194107 
    1451   -9730.0366    116.33215   -9436.4772    907.24259    4.1489019     2.404313   0.58786626    21.242816 
    1452   -9729.7614    115.23089   -9438.1008    898.65422    4.1220658    2.3996405   0.58654492     21.28249 
    1453   -9729.7045    115.94332   -9439.7651    904.21022    4.0977408    2.4093289   0.58500383    21.327068 
    1454   -9729.7003    117.33799   -9441.9029    915.08691     4.067466    2.4177698   0.58325014    21.365381 
    1455   -9729.4894    117.55344   -9446.1903    916.76713    4.0038923    2.4090469    0.5812907    21.406568 
    1456   -9729.1692    117.19515   -9451.6477    913.97295    3.9222371    2.3748981   0.57911354    21.499865 
    1457    -9729.029    118.13816   -9455.9884    921.32717    3.8589071    2.3188555   0.57674522    21.543682 
    1458   -9729.0403    120.02169   -9459.7052    936.01634    3.8065382    2.2542365   0.57419457    21.582825 
    1459    -9728.903    120.60686   -9465.3472    940.57988    3.7248582     2.197253   0.57228772    21.621801 
    1460   -9728.5683     119.4873   -9472.7654    931.84875    3.6152853    2.1590189   0.57888137    21.667602 
    1461   -9728.3169     118.7776   -9478.4684    926.31401    3.5311314    2.1405828   0.58530199    21.706002 
    1462   -9728.2823     119.5729   -9480.5894    932.51637    3.5006665    2.1329859   0.59153546    21.750986 
    1463   -9728.2201    120.29283   -9481.3075     938.1309    3.4896394    2.1218859   0.59756782    21.797611 
    1464   -9727.9417    119.64373   -9483.0009    933.06875    3.4617699    2.0947933   0.60338188    21.836513 
    1465   -9727.6464    118.95888   -9484.8103    927.72778     3.432025    2.0475451   0.60895841    21.875008 
    1466   -9727.5631    119.85791   -9485.1838    934.73903    3.4255697    2.0925271   0.61427043    21.921535 
    1467    -9727.559     121.3264    -9485.497    946.19139    3.4210842    2.1595132   0.61930386     21.96277 
    1468    -9727.361    121.38363   -9487.8129    946.63774    3.3855553    2.2099656   0.62403717     22.00875 
    1469   -9727.0365     120.4321   -9490.6925    939.21702    3.3402708    2.2281938   0.62844716    22.052251 
    1470   -9726.8804    120.46874   -9490.4606    939.50272    3.3413432    2.2140466   0.63250841    22.090719 
    1471   -9726.8885    121.58316   -9486.1469    948.19383    3.4024237    2.1830214   0.63617439    22.129151 
    1472   -9726.7809    121.81533     -9480.23     950.0044    3.4845259    2.1585295   0.63943579    22.167616 
    1473   -9726.4756    120.65903   -9474.3116    940.98679    3.5638578    2.1603107   0.64226581    22.262992 
    1474   -9726.2375    120.07221   -9467.6135    936.41036    3.6551567     2.194616    0.6446408    22.305318 
    1475   -9726.2276    121.22165   -9460.5462    945.37448    3.7548991     2.250795   0.64654144    22.350623 
    1476   -9726.2139    122.58497   -9456.3214    956.00669    3.8144154    2.3061115   0.64793518    22.390578 
    1477   -9725.9939    122.59029   -9456.9672    956.04812    3.8021788    2.3368488   0.64882964     22.43581 
    1478     -9725.73    122.23472   -9459.8636    953.27514    3.7575148    2.3302935   0.64921731    22.477397 
    1479   -9725.6678    123.14278   -9460.9374    960.35684    3.7414583     2.291407   0.65408106    22.515747 
    1480    -9725.704    124.56991   -9459.6589    971.48662    3.7600388    2.2405707   0.66003079    22.566212 
    1481   -9725.5654    124.64644   -9458.2255    972.08348    3.7783383     2.203515   0.66583505    22.607738 
    1482   -9725.2973    123.64237    -9457.223    964.25301    3.7887173    2.1985736   0.67148797    22.648766 
    1483   -9725.1814    123.47647   -9455.3913    962.95924    3.8129672    2.2275872   0.67698734    22.695789 
    1484   -9725.2446    124.30723   -9453.3198    969.43811     3.843138    2.2748732   0.68233062    22.734103 
    1485   -9725.2127    124.21413   -9453.6324    968.71204    3.8382688    2.3148525   0.68751468    22.834853 
    1486   -9724.9826    122.57949   -9456.6601    955.96392    3.7922255    2.3247239   0.69253015    22.874919 
    1487   -9724.8053    121.28897   -9459.0925    945.89949    3.7553438    2.2958524   0.69737785    22.923129 
    1488   -9724.8523    121.64392   -9458.2704    948.66766    3.7676263    2.2380427   0.70205341    22.965017 
    1489   -9724.9223    122.23786   -9455.4211    953.29963    3.8088849    2.1743454   0.70655226    23.005482 
    1490   -9724.7929    121.41435   -9452.9103    946.87727    3.8425406    2.1291598   0.71086969    23.060145 
    1491   -9724.5874    120.10991   -9450.5657    936.70433    3.8727742     2.115884   0.71498738    23.101328 
    1492   -9724.5782    120.14606   -9447.3354    936.98628     3.918298    2.1304426     0.718914    23.142607 
    1493   -9724.6931    121.01774   -9444.5782    943.78423    3.9588891    2.1536598   0.72264556    23.183833 
    1494   -9724.6476    120.75927   -9444.6526    941.76852    3.9571959    2.1609797   0.72617838    23.224475 
    1495   -9724.4467    119.39449   -9446.7648    931.12494    3.9245031    2.1348179   0.72950894    23.262977 
    1496   -9724.3703    118.92798   -9447.4774    927.48675    3.9133525    2.0821238   0.73262505     23.30139 
    1497   -9724.4894    119.87417   -9445.6205    934.86587    3.9412786    2.1055691   0.73553168    23.339839 
    1498   -9724.5359    120.43053   -9443.6225    939.20473    3.9701747    2.1325117    0.7382249    23.379227 
    1499   -9724.3785    119.71201   -9443.3073    933.60123    3.9724041    2.1608841   0.74070029    23.474061 
    1500   -9724.2567    119.31303   -9443.5274    930.48965    3.9675726    2.1882792    0.7429532    23.512535 
    1501   -9724.3542    120.40574   -9443.3655    939.01144    3.9712382    2.2131208   0.74497562    23.559305 
    1502   -9724.4758    121.49469   -9444.7466    947.50383    3.9534379    2.2353862   0.74676632    23.598113 
    1503   -9724.3829    120.84316   -9449.3702    942.42277    3.8867799    2.2565079   0.74832075    23.639539 
    1504   -9724.2067    119.43549   -9455.1084    931.44469    3.8031904    2.2784864   0.74963415       23.691 
    1505   -9724.2263      119.374   -9458.3171     930.9652    3.7581184    2.3026632    0.7507013    23.731497 
    1506   -9724.3913    120.43812   -9458.6023    939.26394    3.7564191    2.3287626   0.75151319    23.780668 
    1507   -9724.4127    120.66353   -9458.4406    941.02187    3.7590084    2.3546831   0.75206687    23.819131 
    1508   -9724.2658    119.84595    -9458.837    934.64578    3.7513302    2.3771968   0.75235633    23.858038 
    1509   -9724.2308    119.83868    -9458.659    934.58908    3.7533498    2.3932422    0.7523765    23.902545 
    1510   -9724.4038     121.1499   -9458.3304    944.81495    3.7604397    2.4011896   0.75212369    23.943854 
    1511   -9724.5182    121.84877   -9460.6243    950.26526    3.7296354    2.4014425   0.75159191    23.985048 
    1512   -9724.4075    120.83803   -9466.3341    942.38276    3.6473744    2.3960311   0.75078393    24.026388 
    1513    -9724.304    119.86094   -9472.0772     934.7627    3.5647434    2.3874596   0.74969922    24.125503 
    1514   -9724.4418    120.61469   -9474.6272    940.64101    3.5306527    2.3773497   0.74833721     24.16382 
    1515    -9724.647    121.89603   -9475.1048    950.63378    3.5268019     2.365605   0.74669705    24.202182 
    1516   -9724.6356    121.77193    -9476.433    949.66596    3.5078707    2.3505323   0.74477215    24.240595 
    1517   -9724.5213    120.97289   -9478.8645    943.43448    3.4718884    2.3297703   0.74256802    24.278841 
    1518   -9724.6119    121.54695   -9481.1597    947.91138    3.4407317    2.3017042   0.74008536    24.317169 
    1519   -9724.8651    123.14789   -9484.6308    960.39669    3.3952533    2.2665058   0.73732614    24.355658 
    1520    -9724.968    123.55845   -9491.9546    963.59856    3.2931986    2.2263477   0.73429348    24.394092 
    1521   -9724.8833    122.55558   -9502.1457    955.77742    3.1479696    2.1846987   0.73097777    24.432408 
    1522    -9724.923    122.26522   -9510.4762    953.51303    3.0307954    2.1449079   0.72739574    24.470741 
    1523   -9725.1934    123.40945   -9514.0266    962.43654    2.9844393    2.1090922   0.72355044    24.509193 
    1524   -9725.4145     124.0097   -9514.2134    967.11776    2.9849246    2.0775634   0.71944462    24.557382 
    1525   -9725.4163    122.80393   -9512.9244    957.71427    3.0031669    2.0491554    0.7150813    24.604277 
    1526   -9725.4274    121.38242   -9509.6066    946.62827    3.0502141    2.0222301   0.71621087    24.699359 
    1527   -9725.6769    121.32733   -9504.1189    946.19867    3.1312982    2.0260577   0.72089475    24.738385 
    1528   -9725.9887    121.45342   -9499.3901      947.182    3.2025392    2.0809351   0.72537578    24.783096 
    1529   -9726.0938    119.94964   -9498.1149    935.45442    3.2220462    2.1143665   0.72965342    24.824928 
    1530   -9726.0978    117.66159   -9498.5424    917.61059    3.2160605    2.1112414   0.73372672     24.86432 
    1531   -9726.2884    116.79455   -9496.6278    910.84876     3.245813     2.073839   0.73764643    24.903031 
    1532   -9726.6403    117.27241   -9491.5347    914.57542    3.3227676    2.0207079    0.7413601    24.941724 
    1533   -9726.8546    117.09049   -9485.9481    913.15672    3.4047529    1.9775803   0.74486835    24.980882 
    1534   -9726.8887    115.96471   -9481.5435    904.37704    3.4674867     1.964802   0.74817357    25.021486 
    1535   -9727.0362    115.85031   -9477.6997    903.48489    3.5238956    1.9876927   0.75127989    25.061511 
    1536   -9727.4074    117.43013   -9474.9217    915.80547    3.5684039    2.0343734   0.75424619    25.106155 
    1537   -9727.7414    118.73309   -9475.7961    925.96691    3.5607657    2.0817167   0.75702558    25.199484 
    1538    -9727.853    118.38776      -9480.7    923.27378    3.4930357    2.1067753   0.75962417    25.243683 
    1539   -9727.9587    117.84641   -9485.5225    919.05195     3.426372    2.0979901   0.76204786    25.288964 
    1540   -9728.2954    118.69683   -9486.1098    925.68413    3.4228306     2.060851   0.76430263    25.328723 
    1541   -9728.7021    119.77178   -9483.0203    934.06736    3.4722423    2.0151776    0.7663969    25.366957 
    1542    -9728.899    119.14085   -9479.4127    929.14694    3.5260125    2.0376298   0.76833625      25.4187 
    1543   -9728.9762    117.52109   -9476.1121     916.5148    3.5737517    2.0629088   0.77012866    25.462471 
    1544   -9729.2374    117.12156   -9472.1956    913.39905    3.6327948    2.0838923   0.77178228    25.504821 
    1545   -9729.6716    117.89129   -9469.2605    919.40196    3.6804138    2.0991551   0.77330465      25.5524 
    1546    -9729.968    117.68568   -9470.7875    917.79841    3.6630208    2.1231782   0.77467278     25.59665 
    1547   -9730.0577    116.06773    -9476.908    905.18048     3.577788     2.138512   0.77591946    25.635012 
    1548   -9730.2338    115.11896   -9483.4363    897.78125    3.4880109     2.125814   0.77704639    25.678064 
    1549     -9730.64    115.82641   -9487.1507    903.29852    3.4412556    2.1359066   0.77805336    25.716524 
    1550   -9731.0129    116.36826    -9488.899    907.52424    3.4218173    2.1470862   0.77893868    25.755072 
    1551   -9731.1394    115.32483   -9490.2527    899.38683    3.4044735    2.1567882   0.77966918    25.798825 
    1552   -9731.2312    114.17073   -9490.4428    890.38633    3.4030851    2.1619063    0.7802705    25.842537 
    1553   -9731.5502    114.66241   -9489.0568    894.22076     3.427181    2.1603276   0.78073734    25.894778 
    1554   -9731.9518    115.66764   -9489.0187    902.06031    3.4333964     2.152056   0.78106281    25.988291 
    1555   -9732.1346    115.00922   -9493.3013    896.92547    3.3754532    2.1392374   0.78123835    26.027071 
    1556   -9732.1567    113.20494   -9499.9165    882.85433    3.2822725    2.1250659   0.78120509    26.071069 
    1557    -9732.343    112.62003   -9503.6159    878.29283     3.232621    2.1122341   0.78100001     26.11386 
    1558   -9732.7144    113.48727   -9502.1006    885.05616    3.2592855    2.1015007   0.78061181    26.161239 
    1559   -9732.9543    113.63554   -9497.4625    886.21252     3.328227    2.1202532   0.78002953    26.199615 
    1560   -9732.9596    112.35149   -9491.7186    876.19854    3.4094817    2.1210734   0.77924317    26.241113 
    1561   -9733.0161    111.65256    -9484.762    870.74775    3.5085988    2.1074081   0.77819503    26.281002 
    1562   -9733.3067    112.76018   -9477.7444    879.38578    3.6118847    2.0898846   0.77692614    26.331855 
    1563   -9733.5903    113.93765   -9474.4999    888.56857    3.6617476    2.0797194   0.77543046    26.373101 
    1564   -9733.6236    113.48525     -9476.91    885.04044    3.6281567    2.0843278   0.77370318    26.414207 
    1565   -9733.5907    112.68944   -9481.3389    878.83409    3.5650972    2.0996863   0.77174081    26.452671 
    1566   -9733.7829    113.53748   -9482.6351    885.44778    3.5494935     2.121429   0.76951478    26.491224 
    1567   -9734.0864    115.15898   -9480.0658    898.09342    3.5900957    2.1373437    0.7670513    26.529853 
    1568   -9734.1731    115.26945   -9476.5045    898.95493    3.6416535     2.138275   0.76435257    26.637735 
    1569   -9734.0787    114.16109    -9473.492    890.31115    3.6828964    2.1223084   0.76142321    26.682627 
    1570   -9734.1464    114.24367   -9470.9009     890.9551    3.7204727    2.0959773   0.75827008    26.724338 
    1571   -9734.4309    115.86149   -9470.7117    903.57205    3.7271669    2.1034064   0.75489389    26.763121 
    1572   -9734.6055    116.65144   -9476.5201     909.7327    3.6475451    2.1607474   0.75461339    26.802188 
    1573   -9734.5302    115.55923   -9488.1268    901.21481     3.482441    2.1951548   0.76152199    26.855786 
    1574   -9734.4899    114.55404   -9500.1298    893.37563    3.3122323    2.1940994   0.76821674    26.906083 
    1575   -9734.6964     115.1306   -9507.7432    897.87205    3.2075505     2.162058   0.77469256    26.957586 
    1576   -9734.9184    115.72337   -9511.3904     902.4949    3.1591411    2.1183781   0.78096001    27.013666 
    1577   -9734.8877    114.51733   -9513.7732    893.08933    3.1250306    2.0966338   0.78700035    27.062292 
    1578   -9734.7701    112.71862   -9515.4816    879.06172    3.0992246    2.0881583   0.79281065    27.111791 
    1579   -9734.8738    112.55368   -9516.5249    877.77537    3.0859447    2.1222769   0.79838861    27.158948 
    1580   -9735.1126    113.52299   -9519.8139    885.33475    3.0428365    2.1761101   0.80373218    27.197486 
    1581   -9735.1664    113.43314   -9528.8209      884.634    2.9162995    2.2257998    0.8088524    27.235937 
    1582   -9735.0375    112.32433   -9542.1575    875.98672    2.7259913    2.2492627   0.81373369    27.274348 
    1583   -9735.0406    112.45106   -9554.0782    876.97504    2.5575581    2.2371557   0.81837361     27.36834 
    1584   -9735.2573    114.38781   -9560.7275    892.07926    2.4666455    2.1975973   0.82277007    27.407946 
    1585   -9735.3973    115.99341   -9562.9077     904.6009    2.4378119    2.1522472   0.82692169    27.447898 
    1586   -9735.3029    115.97774   -9562.2929    904.47864    2.4451663    2.1257061   0.83085621    27.486395 
    1587   -9735.2215    115.86198   -9558.5865    903.57592    2.4963988    2.1334557   0.83454544    27.525114 
    1588   -9735.3697    117.01682   -9552.1503     912.5822    2.5894558    2.1742713   0.83798955    27.571144 
    1589     -9735.56     118.0498   -9546.1025    920.63808    2.6776199    2.2306906    0.8411882    27.612167 
    1590   -9735.5328    117.12531   -9542.7282    913.42826    2.7249251     2.277443   0.84414014    27.652316 
    1591   -9735.3917    115.23368   -9539.5269    898.67592    2.7681738    2.2938471   0.84688478    27.690716 
    1592   -9735.4417    114.70513   -9532.0236    894.55395    2.8749271    2.2739875   0.84937791      27.7292 
    1593   -9735.6544     115.4733   -9519.5839     900.5447    3.0537449    2.2296853   0.85161626    27.767544 
    1594   -9735.7242    115.40566   -9505.6735    900.01718    3.2513271    2.1845951   0.85359608     27.81189 
    1595   -9735.5998    114.08076   -9493.0022    889.68463    3.4286535    2.1625019    0.8553131    27.850309 
    1596   -9735.5532    113.54245   -9481.7915    885.48651    3.5864372    2.1756648   0.85680305    27.949074 
    1597   -9735.7279      114.756   -9473.1483    894.95064    3.7110621    2.2187968   0.85801977    27.987578 
    1598   -9735.8781    115.95621   -9470.1503    904.31075    3.7555552    2.2717746   0.85895723    28.026011 
    1599   -9735.8022    115.68196   -9473.6448    902.17196    3.7050942    2.3095357   0.85960949    28.069725 
    1600   -9735.6941    115.25517   -9479.5896    898.84356    3.6195486    2.3144666   0.85997109    28.114725 
    1601   -9735.7991      116.425   -9483.2278    907.96672    3.5696122    2.2851509   0.86007699    28.154155 
    1602   -9735.9955    118.26324   -9484.2631    922.30265    3.5577568    2.2369885   0.85988271    28.192643 
    1603   -9736.0029     118.7049   -9485.4451    925.74703    3.5411563    2.1945505   0.85938341    28.231484 
    1604   -9735.8741    117.99593   -9487.8493    920.21799    3.5053565    2.1793908   0.85857365    28.269952 
    1605   -9735.9001    118.08711   -9490.7084    920.92911    3.4653159    2.1994867   0.85744724    28.308615 
    1606   -9736.1012    119.10702   -9494.9236    928.88309    3.4085852     2.245385   0.85605176    28.347037 
    1607   -9736.1989    119.07779   -9502.7485    928.65512    3.2993748     2.294781   0.85432545    28.385786 
    1608   -9736.0939    117.35737   -9513.3319    915.23806    3.1483161     2.323476   0.85226105    28.424275 
    1609   -9736.0375    115.82324   -9521.8993    903.27378    3.0264353    2.3173427   0.84985147    28.462696 
    1610   -9736.1953    115.75338    -9524.866    902.72895     2.986737    2.2793409   0.84708954    28.562824 
    1611   -9736.3584    115.78541   -9523.4807    902.97874    3.0086198    2.2279415   0.84402368    28.603662 
    1612   -9736.3137     114.4143   -9520.9622    892.28586    3.0435825    2.1877412   0.84058863    28.642331 
    1613   -9736.2076    112.66166   -9518.4714    878.61748     3.077286    2.1771817   0.83677411    28.680881 
    1614   -9736.2855    112.33823   -9516.1188    876.09516    3.1116353    2.1995487   0.83256872    28.719349 
    1615    -9736.472    113.02269   -9515.7374    881.43304    3.1196624     2.241534   0.82796053    28.764863 
    1616   -9736.5045    112.97943   -9519.2129    881.09566    3.0710015    2.2798816   0.82298047    28.803782 
    1617   -9736.3955    112.28365   -9524.7432    875.66944    2.9913016    2.2929995   0.81757504    28.842055 
    1618   -9736.4009     112.6871   -9527.8035    878.81587    2.9481258    2.3145125    0.8117349    28.880668 
    1619   -9736.5764    114.46896   -9526.2326    892.71209    2.9728078    2.3392358   0.80545242    28.919655 
    1620   -9736.6843    115.76287   -9521.9322    902.80292    3.0351113     2.329215   0.79872188    28.960756 
    1621   -9736.5966     115.5527   -9517.1785    901.16392    3.1010554    2.2947532   0.79154901    29.090602 
    1622   -9736.5189     115.2065   -9512.0907    898.46395    3.1718649    2.2574133   0.78392316    29.133083 
    1623   -9736.6294    116.00336   -9506.8159    904.67845    3.2479749    2.2391885   0.77584554    29.171535 
    1624    -9736.782    116.91678   -9503.5916    911.80196    3.2957012    2.2517446    0.7673199    29.209966 
    1625   -9736.7622    116.42422   -9504.1097    907.96061    3.2881002    2.2911958   0.75835211    29.248885 
    1626    -9736.647    115.21673   -9506.3229    898.54378    3.2551916    2.3405085   0.74891698    29.287355 
    1627   -9736.6843    115.12594   -9506.6134    897.83574    3.2516134    2.3780809   0.73905519    29.327255 
    1628   -9736.8601    116.08917   -9504.4582    905.34766    3.2845583    2.3887313   0.72877474    29.368383 
    1629   -9736.9234    116.31865   -9502.6297    907.13736    3.3112939    2.3714624   0.71808314    29.410148 
    1630   -9736.8226    115.38891   -9503.0525    899.88655    3.3038931    2.3529346    0.7069875    29.450527 
    1631   -9736.7861    114.93472    -9505.171    896.34443    3.2734375     2.373026   0.69544128    29.488888 
    1632   -9736.9375    115.74133   -9508.8552    902.63497     3.223508     2.387078   0.68350588    29.596148 
    1633   -9737.0724    116.29669   -9515.5946     906.9661    3.1301663     2.396501    0.6711904    29.637207 
    1634   -9737.0104    115.33313   -9525.3055    899.45154    2.9920448      2.40415    0.6585059    29.677802 
    1635   -9736.9133    114.01449   -9534.2348    889.16784    2.8644725    2.4514354   0.64546572    29.716253 
    1636   -9736.9991    113.96241    -9538.438    888.76168    2.8062827    2.4889843   0.63203197    29.754636 
    1637   -9737.1672    114.51131   -9538.1768     893.0424    2.8123484    2.4967043   0.61827623    29.793229 
    1638   -9737.1714    113.95547   -9536.6492    888.70756    2.8339993    2.4771991    0.6042185     29.83161 
    1639   -9737.0462     112.5763   -9535.6902    877.95177    2.8457815    2.4617055   0.58988095     29.86989 
    1640   -9737.0456    112.23245   -9535.1939    875.27017    2.8527886    2.4663225   0.57682273    29.917114 
    1641   -9737.2071    113.24823   -9535.8726      883.192    2.8454788     2.465199   0.58192513    29.955868 
    1642   -9737.2931    113.93378    -9539.229    888.53836    2.7992576    2.4609811   0.58672889    29.994123 
    1643   -9737.2015    113.50357   -9544.0961    885.18328    2.7291762     2.508858   0.59121627    30.093279 
    1644   -9737.1391    113.31934   -9546.0826    883.74653    2.7002188    2.5522425   0.59536765    30.131556 
    1645   -9737.2582    114.36092    -9542.028     891.8695    2.7592054    2.5716916   0.59916313     30.17428 
    1646   -9737.3894     115.3818   -9533.1708    899.83111    2.8862402    2.5585564   0.60258809    30.214352 
    1647   -9737.3432    114.93253   -9522.5815    896.32735    3.0352469    2.5193658    0.6056229    30.252786 
    1648   -9737.2301    113.75172   -9511.4239    887.11853    3.1913399    2.4723149   0.60825439    30.291086 
    1649   -9737.2675    113.42918   -9499.7447    884.60317    3.3569315    2.4381122   0.61047191    30.329297 
    1650   -9737.4058    113.72365     -9489.18    886.89961     3.508198    2.4787037   0.61226676    30.367663 
    1651   -9737.4162    113.16584   -9481.9713    882.54942     3.610226    2.5207698    0.6136353    30.406144 
    1652   -9737.2886    111.83708    -9477.681    872.18677    3.6690571    2.5529803   0.61456908    30.444614 
    1653   -9737.2459    111.49152   -9473.5681     869.4919    3.7265825    2.5660432   0.61506532    30.482991 
    1654   -9737.3645     112.7759   -9468.6057    879.50841    3.7983921    2.5577111   0.61512457    30.521458 
    1655   -9737.4491    114.26822    -9464.897    891.14663    3.8520044    2.5342327    0.6147512    30.572477 
    1656   -9737.3717    114.89362   -9464.4077     896.0239    3.8578248    2.5073731   0.61395313    30.613661 
    1657   -9737.2906    115.52959    -9466.514    900.98367    3.8269113    2.4887303   0.61274194    30.706685 
    1658   -9737.3701    117.11693   -9469.9121    913.36292    3.7800083    2.4842756   0.61113077    30.751577 
    1659   -9737.4946    118.66709   -9474.8798    925.45214    3.7115593    2.4916847   0.60913315    30.793347 
    1660   -9737.4698    118.70741    -9481.534    925.76665    3.6171637    2.5015335     0.606762     30.83613 
    1661   -9737.3488    117.71969   -9487.2873     918.0637    3.5341414    2.5018581   0.60402549     30.87711 
    1662   -9737.3464    117.36107   -9488.7718    915.26689    3.5131274    2.4840935   0.60093853    30.918639 
    1663   -9737.4664    117.81727   -9485.8909    918.82469    3.5555387    2.4474331    0.5975127    30.957562 
    1664   -9737.5087     117.7147   -9482.0059    918.02471    3.6110446    2.3991932   0.59376025    30.996088 
    1665   -9737.4254    116.59867    -9480.007    909.32115    3.6381167    2.3509324   0.58969435    31.035215 
    1666   -9737.3837    115.69698   -9480.1552    902.28907    3.6354327    2.3126217   0.58532351    31.082288 
    1667   -9737.4816    115.77503   -9482.0468    902.89777    3.6100838    2.2880964   0.58066616    31.123379 
    1668   -9737.5756    115.93495   -9486.0228    904.14493    3.5552194    2.2738568   0.57660232    31.162503 
    1669    -9737.537    115.31544   -9491.5381    899.31356    3.4767247     2.291043    0.5737858     31.26134 
    1670   -9737.4717    114.64272   -9495.9496     894.0672    3.4134536    2.2923945   0.58211189    31.299912 
    1671   -9737.5289    114.94842   -9496.8282    896.45131    3.4018442    2.2650385   0.59359239    31.338356 
    1672   -9737.6497    115.68277   -9494.7881    902.17828    3.4323857    2.2223008   0.60495007    31.376735 
    1673   -9737.6646    115.50467   -9492.4018    900.78934    3.4663206    2.1851454   0.61615583     31.41511 
    1674   -9737.5792    114.43216   -9490.9416    892.42514    3.4857512    2.1737028   0.62717733     31.45612 
    1675   -9737.5657    113.77162   -9489.7856    887.27377    3.5018982    2.1889043   0.63798025    31.494749 
    1676   -9737.6727    113.95673   -9488.6737    888.71735    3.5191254    2.2295013    0.6485575    31.533675 
    1677    -9737.743    113.89658   -9488.4929     888.2483     3.522675    2.2754192   0.65884688     31.58042 
    1678   -9737.6762    112.94908   -9489.1788    880.85899     3.512035    2.3062554   0.66881449    31.621595 
    1679   -9737.6059    112.13938   -9488.8753    874.54432    3.5153325    2.3095935   0.67842644    31.662725 
    1680   -9737.6701    112.50416    -9486.567    877.38919    3.5488632    2.2875173   0.68764831    31.755643 
    1681   -9737.7685    113.42622   -9484.1437    884.58004    3.5845027    2.2554965   0.69648132    31.794015 
    1682   -9737.7518    113.78562   -9484.2859    887.38294    3.5822566    2.2344274   0.70485596    31.832504 
    1683   -9737.6812    113.81516    -9487.355    887.61326    3.5378831    2.2402252   0.71274231    31.872578 
    1684   -9737.7098    114.41534   -9491.8439    892.29396    3.4748444    2.2761944   0.72011665    31.919615 
    1685   -9737.8121    115.28792    -9496.832    899.09898    3.4057935    2.3311433   0.72696324    31.960899 
    1686   -9737.8265      115.258   -9501.9963    898.86561    3.3330103    2.3841893   0.73330006    31.999384 
    1687   -9737.7384     114.2199   -9505.8207    890.76972    3.2777137    2.4147633   0.73910091    32.038152 
    1688   -9737.6993    113.33372   -9506.0304    883.85869    3.2741982    2.4130107   0.74437004    32.081615 
    1689   -9737.7684    113.12804   -9502.5069    882.25466     3.324973    2.3849517   0.74911458    32.122678 
    1690   -9737.8174    112.74518   -9498.2566    879.26878    3.3857347    2.3494372   0.75334336    32.162069 
    1691   -9737.7503    111.57039   -9496.6255    870.10694     3.407838     2.328625   0.75707703    32.200764 
    1692   -9737.6661    110.42818   -9498.6298    861.19919    3.3783218    2.3370592   0.76031805    32.261628 
    1693   -9737.6844    110.38621    -9503.541     860.8719    3.3091697    2.3745908   0.76308185    32.309986 
    1694   -9737.7529    111.18473   -9510.7504    867.09929     3.208247     2.426278   0.76538633     32.41879 
    1695   -9737.7411    111.83196   -9519.5323    872.14684    3.0839652    2.4694464   0.76725066    32.464791 
    1696   -9737.6587    112.24024   -9527.7354    875.33096    2.9668649     2.484874   0.76867201    32.511899 
    1697   -9737.6361    113.08727   -9532.8247    881.93667    2.8946186    2.4665459   0.76968804    32.559745 
    1698   -9737.6822    114.30127   -9534.4028    891.40433    2.8729657    2.4247787   0.77031189     32.60374 
    1699    -9737.673    114.96608   -9534.4799      896.589     2.871747    2.3810189   0.77055371    32.650409 
    1700   -9737.5791    114.83496   -9535.0299    895.56641    2.8626455    2.3571607   0.77042152    32.695639 
    1701   -9737.5045    114.79193   -9536.4541    895.23088    2.8414644    2.3649441   0.76985637    32.739536 
    1702   -9737.5224    115.43019   -9538.6586    900.20844    2.8105603    2.4003783   0.76893151    32.783662 
    1703   -9737.5431    116.21121   -9541.8529    906.29944    2.7657072    2.4457155   0.76765424    32.829237 
    1704   -9737.4791     116.5344   -9545.6166    908.81992    2.7116102    2.4779765   0.76603154    32.873648 
    1705   -9737.4007    116.78511   -9548.2764     910.7751    2.6729112    2.4802883   0.76406923    32.919133 
    1706   -9737.3967    117.56876   -9548.4766     916.8866    2.6700245    2.4503964   0.76171735    32.975964 
    1707   -9737.4304    118.51814   -9546.8791    924.29056    2.6930778    2.4017407   0.75903225    33.021472 
    1708      -9737.4    118.81213   -9545.1636    926.58332    2.7168937    2.3566803   0.75601492    33.117092 
    1709   -9737.3188    118.44015   -9543.8836     923.6823    2.7338378    2.3353903   0.75266602    33.158371 
    1710   -9737.2868    118.06873   -9542.2548    920.78573    2.7564047    2.3462425   0.74898699     33.19913 
    1711    -9737.313    117.83264   -9539.7159    918.94455    2.7926578    2.3820581    0.7449728    33.240005 
    1712   -9737.3059     117.1611    -9536.447    913.70735     2.838757    2.4236138   0.74063666    33.280183 
    1713    -9737.229     115.9111   -9532.3043    903.95895    2.8962188     2.448967   0.73598501    33.323037 
    1714   -9737.1648    114.81217   -9526.5241     895.3887    2.9770042    2.4443685   0.73102491    33.361341 
    1715   -9737.1739    114.44555   -9519.1358    892.52951    3.0815527     2.411248   0.72576328    33.399848 
    1716   -9737.1954    114.47598   -9511.7617    892.76689    3.1860757    2.3654383   0.72021718    33.447827 
    1717   -9737.1576    114.36695   -9506.2969    891.91652    3.2627746    2.3290726   0.71438252    33.494228 
    1718   -9737.0935    114.30292   -9503.3015    891.41717    3.3042038    2.3196204   0.70826625    33.544975 
    1719   -9737.0796    114.78937   -9502.2772    895.21089    3.3184838    2.3416164   0.70187673    33.589399 
    1720   -9737.1054    115.68007   -9502.9427    902.15725    3.3094429    2.3846144   0.69522437    33.637529 
    1721   -9737.0874     116.3225   -9505.1914    907.16738    3.2774064    2.4280478    0.6883318    33.680738 
    1722   -9737.0146    116.59044   -9508.0021    909.25694    3.2366538    2.4511337   0.68120217     33.72127 
    1723   -9736.9716    117.02033   -9509.5839    912.60951    3.2136911    2.4432208   0.67384878    33.824958 
    1724   -9736.9952    117.77018   -9509.0968    918.45743    3.2209087    2.4092233    0.6662839    33.865746 
    1725    -9737.008    118.18831   -9507.4727    921.71833    3.2440426    2.3670526   0.65851863    33.911115 
    1726   -9736.9472    117.79703   -9506.0718    918.66685    3.2629819    2.3385085   0.65055537    33.953022 
    1727   -9736.8736    117.05273    -9505.361    912.86222    3.2719886    2.3386526   0.64241245    33.993249 
    1728   -9736.8642    116.60478   -9505.3791    909.36877    3.2715989    2.3687695   0.63410126    34.034136 
    1729   -9736.8776    116.35241   -9506.6249    907.40066     3.254182    2.4158148   0.62563442    34.076522 
    1730   -9736.8341    115.92077    -9509.342     904.0344    3.2151661    2.4584759   0.61702509    34.127201 
    1731   -9736.7639    115.60379   -9512.4634    901.56237    3.1700594    2.4774869   0.60927887    34.170734 
    1732   -9736.7596    115.96094   -9514.4879    904.34766    3.1413857    2.4652929   0.60819711    34.217826 
    1733   -9736.8007    116.75546   -9515.2143    910.54393    3.1317008    2.4299731   0.60681199    34.257916 
    1734   -9736.7879    117.20995   -9515.6326    914.08837    3.1256081    2.3911451   0.60512232     34.29711 
    1735   -9736.7229    117.20512    -9516.224    914.05065     3.116331     2.370199   0.60312987    34.340304 
    1736   -9736.6951    117.31556   -9516.4433    914.91195    3.1128384    2.3800265   0.60087205    34.438563 
    1737   -9736.7282     117.6436   -9515.8397    917.47027    3.1218362    2.4189062   0.59832086    34.488374 
    1738   -9736.7344     117.5515    -9514.462    916.75199    3.1413954    2.4712208    0.5954816     34.55591 
    1739    -9736.671    116.73454   -9511.9748    910.38077    3.1756516    2.5146717   0.59235889    34.605451 
    1740   -9736.6134    115.76541   -9507.4721    902.82277     3.238475    2.5311502   0.58895657    34.648992 
    1741   -9736.6157    115.21891   -9500.8311     898.5608    3.3323641     2.515921   0.58528928    34.693514 
    1742    -9736.626    114.93755   -9493.5546    896.36649    3.4353503    2.4800408   0.58135025    34.743308 
    1743    -9736.587    114.62924   -9487.6529    893.96213    3.5182078    2.4448177    0.5771447    34.787805 
    1744   -9736.5348    114.57215   -9484.1529    893.51689    3.5669352    2.4311509     0.572679    34.830694 
    1745   -9736.5366    115.16474   -9483.0937    898.13828    3.5819308     2.449327   0.56796025    34.877761 
    1746   -9736.5719    116.13104   -9484.2613    905.67421    3.5659285    2.4940394   0.56301508    34.923895 
    1747    -9736.564    116.78465   -9486.9883    910.77157    3.5272767    2.5467474   0.55783089    34.972418 
    1748   -9736.5051    117.01255   -9489.4088    912.54888    3.4922345    2.5846178   0.55882207    35.019933 
    1749   -9736.4746    117.33982   -9489.1137    915.10115    3.4959734    2.5918573   0.57061374    35.097202 
    1750   -9736.5031    117.92852   -9485.1262    919.69227    3.5527338    2.5677146   0.58226573    35.148384 
    1751   -9736.5169    118.20192   -9478.7273    921.82446    3.6433631    2.5267984   0.59374525    35.262945 
    1752   -9736.4621    117.77257   -9472.0272    918.47602    3.7372821    2.4915483   0.60505555    35.315897 
    1753      -9736.4    117.12216   -9466.3843    913.40367    3.8161577    2.4810287      0.61618     35.36057 
    1754   -9736.4062     116.8523     -9462.53    911.29916     3.870717    2.5017932   0.62709979     35.40272 
    1755   -9736.4401    116.77241   -9461.1733    910.67611    3.8903704    2.5450037   0.63779293    35.446822 
    1756   -9736.4137    116.41379   -9462.2955    907.87934    3.8741375    2.5908214    0.6482637    35.488978 
    1757   -9736.3535    116.05455   -9464.3309    905.07767    3.8445205    2.6181325   0.65845277    35.530029 
    1758   -9736.3598    116.35645   -9465.2915    907.43214    3.8310328    2.6150893   0.66832807    35.571361 
    1759   -9736.4228    117.15756    -9464.853    913.67976    3.8381203    2.5850822   0.67785628     35.62769 
    1760   -9736.4349    117.59219   -9464.4718     917.0693    3.8436791    2.5449023   0.68700408     35.67987 
    1761   -9736.3731    117.43897   -9465.4562    915.87442    3.8288932    2.5161913   0.69579245    35.729362 
    1762   -9736.3426    117.37113   -9468.0767    915.34534    3.7914263    2.5149033    0.7041358    35.774599 
    1763   -9736.3911     117.6917   -9472.4687    917.84537    3.7300381    2.5440037   0.71200242    35.817476 
    1764   -9736.4288    117.76233   -9479.0084    918.39617    3.6381464    2.5923494   0.71936077    35.858941 
    1765   -9736.3886    117.11983   -9487.0036     913.3855    3.5245816    2.6399877   0.72617981    35.900119 
    1766   -9736.3397    116.32845   -9494.1204    907.21377    3.4233063    2.6678417    0.7324795    36.001907 
    1767   -9736.3693    116.08107   -9498.3407    905.28452    3.3640799    2.6673637   0.73818458    36.046337 
    1768   -9736.4278     116.1175   -9499.9881    905.56859    3.3416235    2.6449938   0.74327429    36.087669 
    1769   -9736.4218    115.77817   -9501.1205    902.92225    3.3255344    2.6189105   0.74773418     36.12904 
    1770   -9736.3737    115.16528   -9503.3636    898.14249    3.2931535    2.6099051   0.75155612    36.170744 
    1771   -9736.3785    114.90597   -9507.1726    896.12022    3.2393879    2.6312342   0.75477522    36.213982 
    1772     -9736.44    114.98742   -9512.5825    896.75547    3.1637986    2.6821703   0.75735478    36.255277 
    1773   -9736.4629    114.73839   -9519.1344    894.81334    3.0715235    2.7479087   0.75929852    36.296252 
    1774   -9736.4149    114.00463   -9525.0054    889.09096    2.9878691     2.806223   0.76061181    36.336842 
    1775   -9736.3851    113.49992   -9527.5874    885.15486    2.9509571    2.8382435    0.7613014    36.381205 
    1776   -9736.4308    113.68384   -9525.7874    886.58914    2.9770429    2.8379852   0.76140636    36.423193 
    1777   -9736.4816    114.01446   -9521.3095    889.16757    3.0410464    2.8155011   0.76090679    36.463548 
    1778   -9736.4564    113.84988    -9516.996     887.8841    3.1016544     2.791796   0.75981594    36.504609 
    1779   -9736.4049    113.46503   -9514.5207    884.88276    3.1359092    2.7882872   0.75814878    36.550419 
    1780   -9736.4208    113.47493   -9514.0784    884.95994    3.1423853    2.8160474   0.75592066    36.658825 
    1781   -9736.4706    113.74142   -9515.3612    887.03819    3.1249598    2.8699847   0.75320937    36.698938 
    1782   -9736.4606    113.65889   -9517.6437    886.39457    3.0925586    2.9310278   0.74996236    36.748227 
    1783   -9736.3951    113.31669   -9519.1333    883.72591    3.0705802    2.9752997   0.74618787    36.788377 
    1784    -9736.377    113.42241   -9517.9558    884.55032    3.0869666    2.9861284   0.74189136    36.829865 
    1785   -9736.4297    114.06689   -9514.2484     889.5765    3.1401078    2.9625868    0.7370767     36.87229 
    1786   -9736.4396    114.55842   -9510.3613    893.40978    3.1951849    2.9200652   0.73184678    36.915921 
    1787   -9736.3753    114.63301   -9508.7722    893.99147    3.2167342    2.8827332   0.72610645    36.956626 
    1788   -9736.3316    114.92696   -9510.3336    896.28393    3.1940507    2.8714365   0.72625733    36.997714 
    1789   -9736.3678    115.81456   -9514.7339    903.20607    3.1323731    2.8934392   0.73145296    37.037698 
    1790   -9736.4079    116.67088   -9521.1814    909.88425    3.0418162    2.9388236   0.73657511    37.078339 
    1791    -9736.366    116.85826    -9527.939    911.34563    2.9457172    2.9852818    0.7416188    37.119648 
    1792   -9736.3059    116.66792   -9532.4184    909.86116    2.8815598    3.0092012   0.74658112     37.16087 
    1793    -9736.313     116.6518   -9532.9153    909.73552    2.8746383    2.9973716   0.75146075    37.257141 
    1794   -9736.3452    116.60991    -9530.207    909.40882    2.9133696    2.9536233   0.75625811    37.307102 
    1795   -9736.3195    116.06176   -9526.7896     905.1339    2.9613051    2.8967717   0.76097505    37.352488 
    1796   -9736.2539    115.27935    -9524.845    899.03212    2.9878621    2.8509445   0.76558852    37.395912 
    1797   -9736.2377    114.98082   -9525.5593    896.70397    2.9775371    2.8334525   0.77012631    37.438357 
    1798   -9736.2711    115.26042   -9529.3692     898.8845    2.9241636     2.846204    0.7745912     37.48276 
    1799   -9736.2795    115.54728   -9535.6858    901.12163     2.835009    2.8749884   0.77898577    37.523035 
    1800   -9736.2439    115.54924   -9542.2633    901.13692     2.741546    2.8966865    0.7833127    37.564103 
    1801   -9736.2191    115.56741   -9545.9573    901.27859    2.6889864    2.8908863    0.7875383    37.605081 
    1802   -9736.2393    115.77133   -9544.8835    902.86893    2.7044488    2.8502184   0.79170321    37.651671 
    1803   -9736.2575    115.77877   -9539.6688    902.92697    2.7784055    2.7839751   0.79581216    37.721044 
    1804   -9736.2279    115.22252   -9532.6637    898.58889    2.8769919    2.7131915   0.79987005    37.781713 
    1805   -9736.1802    114.32227   -9526.3422     891.5681    2.9656594    2.6599481   0.80388142    37.841716 
    1806   -9736.1625    113.54444   -9522.4705    885.50206    3.0201274    2.6367429   0.80783442    37.895706 
    1807   -9736.1648    112.98729   -9521.9177    881.15695    3.0279741    2.6411268   0.81174682     37.93845 
    1808    -9736.141    112.49922   -9524.3028    877.35062    2.9939286    2.6575009   0.81561971    38.046087 
    1809   -9736.0913    112.22755   -9527.9018      875.232    2.9423615    2.6649447   0.81945318    38.093581 
    1810   -9736.0653    112.57992   -9530.6912       877.98    2.9025714    2.6476951   0.82324651    38.140991 
    1811   -9736.0765    113.60522   -9531.8972    885.97607    2.8856845    2.6032406   0.82700408    38.179712 
    1812   -9736.0799    114.82041   -9532.4558    895.45297    2.8778375    2.5436438   0.83071831    38.224549 
    1813   -9736.0469    115.78125   -9533.9283    902.94634    2.8565612    2.4894269   0.83438632    38.264806 
    1814   -9736.0059    116.48802    -9537.217    908.45823    2.8095008    2.4594253   0.83800418    38.318622 
    1815   -9735.9933    117.05472   -9542.1811    912.87777    2.7391656    2.4618547   0.84156672    38.398799 
    1816   -9735.9857    117.29849   -9547.8165    914.77883    2.6594127    2.4904044   0.84508593    38.448317 
    1817   -9735.9459    116.98497   -9552.4145    912.33381    2.5938648    2.5267859    0.8485362    38.500472 
    1818   -9735.8895    116.29699   -9553.9644    906.96845    2.5711633    2.5492246   0.85190943    38.554081 
    1819   -9735.8583    115.64094   -9551.3829    901.85204    2.6072068    2.5431956   0.85519737    38.594948 
    1820   -9735.8493    115.13372   -9545.5403    897.89637    2.6896538    2.5088781   0.85839199    38.636499 
    1821   -9735.8258    114.62822   -9538.8119    893.95414    2.7844159    2.4611451   0.86149588    38.748696 
    1822   -9735.7868    114.10083   -9533.6091    889.84114    2.8573952    2.4220285   0.86449102    38.793364 
    1823   -9735.7602    113.68583   -9531.2443    886.60469    2.8904409     2.409737   0.86736909    38.835055 
    1824   -9735.7483    113.33999   -9531.7187    883.90761    2.8835694    2.4295349   0.87012091    38.876499 
    1825   -9735.7189    112.83269   -9533.8267     879.9513    2.8533606    2.4707673    0.8727366    38.916975 
    1826   -9735.6631    112.14208   -9535.4267    874.56539    2.8299586    2.5116277   0.87518896    38.963064 
    1827   -9735.6154    111.53099   -9534.4625    869.79968    2.8429111    2.5296845   0.87748711    39.007244 
    1828   -9735.5843    111.15863   -9530.3094    866.89575    2.9011687    2.5130124    0.8796251    39.054647 
    1829   -9735.5432     110.9495   -9524.1947    865.26479    2.9870068    2.4662438   0.88159975    39.096167 
    1830   -9735.4912    110.85864   -9518.3655    864.55619    3.0686562    2.4084078   0.88341051     39.13633 
    1831   -9735.4465    110.91605   -9514.9976     865.0039    3.1156241    2.3636517    0.8850324    39.176427 
    1832   -9735.4083    110.98548   -9515.4733     865.5454    3.1083616    2.3495154   0.88649416    39.218356 
    1833    -9735.348    110.82179    -9519.732    864.26881    3.0473206    2.3683792   0.88779904    39.258411 
    1834   -9735.2578    110.43436   -9525.9432    861.24736    2.9582615    2.4062846   0.88895115    39.309234 
    1835   -9735.1751    110.14647   -9531.2418    859.00219    2.8822073    2.4397081   0.88995621    39.423353 
    1836   -9735.1146    110.15742   -9533.3588    859.08761     2.851432    2.4470688   0.89080975    39.477033 
    1837    -9735.046    110.29256   -9531.8319    860.14149    2.8720436    2.4194321   0.89153456    39.526181 
    1838   -9734.9493    110.36962   -9527.8981    860.74251    2.9262743    2.3649244   0.89214288    39.576047 
    1839     -9734.85     110.4535    -9523.786    861.39665    2.9829864    2.3047071   0.89264771     39.62382 
    1840   -9734.7655    110.59398   -9521.9808    862.49222    3.0073059    2.2624692   0.89306156    39.665638 
    1841   -9734.6644    110.67547   -9524.2037    863.12769      2.97446    2.2527063   0.89339156    39.711957 
    1842   -9734.5337    110.69871   -9530.3562    863.30898    2.8856588    2.2736387   0.89365044    39.757671 
    1843   -9734.4001    110.97001    -9538.387    865.42477    2.7702707    2.3080393   0.89384537    39.800632 
    1844   -9734.2899    111.75895   -9545.5479    871.57751    2.6675067    2.3316894   0.89398259    39.842261 
    1845   -9734.1879    112.95522   -9549.9787    880.90689    2.6034459    2.3253332   0.89406823    39.895341 
    1846   -9734.0651    114.26369   -9551.3818     891.1113    2.5818797    2.2842147   0.89412092    39.942754 
    1847   -9733.9293    115.55576   -9550.7802    901.18778    2.5884627    2.2203296   0.89413479    39.987588 
    1848   -9733.8035     116.8264   -9549.9519    911.09718    2.5983918    2.1561288   0.89411574     40.09044 
    1849   -9733.6851    117.93205   -9550.6334    919.71976    2.5870864    2.1131495   0.89406858     40.13094 
    1850    -9733.556    118.63075   -9553.4394    925.16876    2.5456038    2.1015442   0.89399646    40.170853 
    1851   -9733.4118    118.85274   -9557.1055    926.90005    2.4917521    2.1156264   0.89393168    40.210882 
    1852   -9733.2705    118.73343   -9558.9778    925.96955    2.4632951    2.1370773   0.89384297    40.251202 
    1853    -9733.138    118.41432   -9556.5072    923.48088    2.4963389    2.1441374   0.89372887     40.28977 
    1854   -9733.0043    117.94504   -9548.7363    919.82114    2.6042765    2.1226478   0.89358712    40.328101 
    1855   -9732.8681    117.39419   -9536.7806    915.52519    2.7713225    2.0733692   0.89341481    40.366563 
    1856   -9732.7342    116.92307   -9523.2541    911.85102    2.9606006    2.0114557   0.89324573    40.405982 
    1857   -9732.6179    116.60516     -9511.26    909.37171    3.1284704    1.9583098   0.89303874    40.450154 
    1858    -9732.507     116.3094   -9503.1167    907.06522    3.2419947    1.9307681   0.89278947    40.492943 
    1859   -9732.3831    115.87297   -9499.3336    903.66162    3.2937107    1.9334097   0.89249337     40.53534 
    1860   -9732.2519    115.34804   -9498.4202    899.56779    3.3047647    1.9569794   0.89214603    40.636327 
    1861   -9732.1237    114.97996   -9497.7912    896.69726    3.3118431    1.9828512   0.89178301    40.678526 
    1862   -9732.0087     114.9157   -9495.3083    896.19612    3.3453072    1.9920482    0.8913622    40.720779 
    1863   -9731.8895    115.12009    -9490.285    897.79008    3.4146188    1.9752235   0.89088143    40.762459 
    1864   -9731.7609    115.55834   -9483.6158    901.20787    3.5070574    1.9377957   0.89033918    40.809321 
    1865   -9731.6447    116.25271   -9477.3318    906.62309    3.5942275    1.8969512   0.88973424    40.858096 
    1866   -9731.5374    117.10053   -9473.8365      913.235    3.6421101     1.872491   0.88909868    40.897595 
    1867   -9731.4192    117.85959   -9474.7579    919.15468     3.627417    1.8771943   0.88839805    40.936856 
    1868   -9731.2832    118.45973   -9479.7738    923.83507    3.5546056    1.9114168   0.88763035      40.9771 
    1869   -9731.1566    119.08518   -9486.5779    928.71272    3.4566526    1.9629862   0.88679302    41.018654 
    1870   -9731.0581     119.8349   -9492.1901    934.55959    3.3759435    2.0124442   0.88588312    41.062065 
    1871   -9730.9585    120.53665   -9494.4489    940.03239    3.3426118    2.0424632   0.88491433      41.1047 
    1872   -9730.8412    121.02581   -9492.7146    943.84719    3.3654655    2.0469994   0.88386638    41.152178 
    1873   -9730.7292    121.38788   -9487.7961    946.67085    3.4333966    2.0347336   0.88273539    41.255529 
    1874   -9730.6439    121.69836   -9481.6603     949.0922    3.5189077    2.0245626   0.88151703    41.298029 
    1875   -9730.5706    121.75463   -9476.6498    949.53102     3.588686    2.0358885   0.88020655    41.338903 
    1876   -9730.4805    121.29171   -9474.0803    945.92091    3.6237264    2.0788412   0.87880513     41.38292 
    1877   -9730.3788    120.33373   -9473.2605    938.44981    3.6338759      2.14864    0.8773022    41.430505 
    1878   -9730.2921    119.14648   -9471.8679    929.19079    3.6523324    2.2266153   0.87569433    41.479491 
    1879   -9730.2237    117.89046   -9467.5032    919.39544    3.7130519     2.288379   0.87397967    41.521486 
    1880   -9730.1473    116.55936   -9459.1007    909.01456    3.8307261    2.3157853   0.87215815    41.575359 
    1881   -9730.0527    115.28183    -9447.436    899.05146    3.9942482    2.3063346   0.87024227    41.623093 
    1882   -9729.9654    114.40971   -9434.9414    892.25001    4.1695999    2.2746727   0.86822306    41.664776 
    1883    -9729.907    114.17245   -9425.0223    890.39967    4.3089637    2.2451839    0.8661031    41.705501 
    1884     -9729.86    114.40731   -9420.7138    892.23131    4.3691913    2.2396093   0.86388487    41.752402 
    1885   -9729.7937    114.80229   -9423.0725    895.31164    4.3349186    2.2660586   0.86157047    41.796791 
    1886   -9729.7107    115.31616   -9430.3664    899.31918    4.2306593    2.3149477   0.85917251    41.852973 
    1887   -9729.6483    116.10939   -9438.9373    905.50539     4.108644      2.36392   0.85668121     41.89642 
    1888   -9729.6112    117.09175   -9445.1588    913.16656    4.0201914    2.3891185   0.85409767    41.938046 
    1889   -9729.5595    117.86306   -9447.0571    919.18179    3.9926331    2.3771746   0.85142297    42.032979 
    1890   -9729.4753    118.20824   -9444.8101    921.87374    4.0231986    2.3318577   0.84865815    42.074753 
    1891   -9729.3878    118.35063   -9440.5535    922.98416    4.0821223    2.2719934   0.84847535    42.121552 
    1892    -9729.332    118.51523   -9437.7575    924.26787    4.1208494    2.2218561   0.85795498    42.167785 
    1893   -9729.2854    118.56093   -9439.7002    924.62428    4.0927334    2.1989423    0.8670706    42.208153 
    1894   -9729.2111    118.29936   -9447.5171    922.58437    3.9812064    2.2056302   0.87580726    42.248761 
    1895   -9729.1267    117.96974   -9459.3942    920.01377    3.8121538    2.2285101   0.88415032    42.289727 
    1896    -9729.073    118.03911   -9471.8731    920.55473    3.6350288     2.245248   0.89204027    42.335124 
    1897   -9729.0538    118.56631   -9482.2113    924.66624    3.4886476    2.2359102   0.89950865    42.375764 
    1898   -9729.0191    119.18695   -9489.5527     929.5064    3.3844005    2.1931546   0.90654115    42.415928 
    1899   -9728.9525     119.7205   -9494.5689    933.66744    3.3125655    2.1365897   0.91312263    42.455911 
    1900   -9728.9111    120.34293   -9498.7746    938.52156    3.2525398    2.1908403   0.91923718    42.496073 
    1901   -9728.9065    121.03694   -9504.0099      943.934    3.1784852     2.209145   0.92484304    42.593328 
    1902   -9728.8972    121.27489   -9511.6012    945.78967    3.0710643    2.1874334   0.92995086    42.633574 
    1903   -9728.8366    120.70996     -9520.77    941.38397    2.9406241    2.1405218   0.93454768    42.674236 
    1904   -9728.7698     119.7332   -9528.4209    933.76651     2.831549    2.0942109   0.93862342    42.719604 
    1905   -9728.7646    118.89241   -9531.0768    927.20938    2.7939384    2.0721068   0.94217113    42.759526 
    1906   -9728.7757    118.14588   -9527.2373    921.38742    2.8483601    2.0845022   0.94519172    42.802902 
    1907   -9728.7419    117.18005   -9518.0672    913.85515    2.9774847    2.1238185   0.94767844    42.845153 
    1908   -9728.6792    116.24048   -9506.2891    906.52771    3.1430598    2.1681596   0.94963183    42.886169 
    1909   -9728.6623    115.91572   -9495.3361      903.995    3.2976209    2.1915877   0.95105432     42.93039 
    1910   -9728.6977    116.22024    -9488.705    906.36984     3.391838    2.1772244   0.95195047     42.97168 
    1911   -9728.7037    116.58166   -9488.4343    909.18849    3.3957486     2.126113   0.95236876    43.012532 
    1912   -9728.6601    116.77161   -9493.4539    910.66985    3.3241908    2.0565198   0.95227698    43.054067 
    1913   -9728.6348    117.20021   -9499.8665    914.01237    3.2332033    1.9939426   0.95168748    43.095379 
    1914   -9728.6675    118.05838   -9503.5574    920.70505    3.1815013    1.9582518   0.95061475    43.136112 
    1915   -9728.7022    118.81761   -9502.5244    926.62608    3.1965909    1.9550907    0.9490745    43.234448 
    1916   -9728.6737    118.97285   -9497.1106    927.83673    3.2727023    1.9742734   0.94712813     43.27885 
    1917   -9728.6262    118.76287   -9489.1368    926.19913    3.3847257    1.9945884   0.94474424     43.32335 
    1918   -9728.6317    118.68502   -9481.3437    925.59204    3.4949431    1.9936258   0.94193589    43.373468 
    1919   -9728.6722    118.62333   -9476.7785    925.11091    3.5600367    1.9595009   0.93871474    43.424539 
    1920   -9728.6754    118.09781   -9477.1091    921.01255    3.5554089    1.9770364    0.9350916    43.471651 
    1921   -9728.6346    117.21504   -9481.0212    914.12807    3.4995437    2.0495524    0.9311272    43.517793 
    1922    -9728.628    116.67068   -9484.9144    909.88269    3.4444274    2.1170852    0.9267824    43.563695 
    1923   -9728.6816    116.76167   -9485.6383     910.5923    3.4349537    2.1622252   0.92206903    43.603991 
    1924   -9728.7221    117.03607   -9482.4872     912.7323    3.4800601    2.1788618   0.91699946    43.646327 
    1925   -9728.7108    117.14406   -9476.8867     913.5745    3.5590523    2.1758188   0.91158605    43.688637 
    1926    -9728.704    117.35675   -9471.1614    915.23321    3.6398739    2.1722319   0.90589814    43.728967 
    1927   -9728.7518    117.86834   -9467.8931    919.22293    3.6867407    2.1875953   0.89988991    43.769506 
    1928   -9728.8053    118.25251   -9469.0746    922.21897    3.6707978    2.2318592   0.89357358    43.872574 
    1929   -9728.8042    118.08693   -9474.6171     920.9277    3.5924493    2.2997508   0.88696257    43.916542 
    1930   -9728.7857    117.68149   -9481.8223    917.76578    3.4903566    2.3721735   0.88007198    43.958166 
    1931   -9728.8142    117.65184   -9487.1274    917.53454    3.4157818    2.4250132    0.8729827    44.004203 
    1932   -9728.8804    118.01529   -9488.6662    920.36897    3.3949683    2.4413249   0.86564827    44.044092 
    1933   -9728.9145    118.33649   -9486.9547     922.8739     3.419639    2.4203749   0.85808739    44.089514 
    1934    -9728.914    118.56631   -9483.8006     924.6662    3.4642102    2.3783765    0.8503186    44.129362 
    1935   -9728.9492    119.08794   -9481.3317    928.73426    3.4996012    2.3405389   0.84235988    44.169911 
    1936   -9729.0325    119.93586   -9481.6355      935.347    3.4964848    2.3510387   0.83429328    44.215565 
    1937   -9729.1056    120.56306   -9485.9085    940.23834    3.4371257    2.3633381   0.82607129    44.259997 
    1938   -9729.1315    120.62643   -9493.0535    940.73254    3.3365122    2.3962469   0.81771224    44.299305 
    1939   -9729.1597    120.46272   -9499.6616    939.45583    3.2435171    2.4436085   0.80923506    44.339888 
    1940   -9729.2435    120.47619   -9502.1937    939.56085     3.208915    2.4689113   0.80065877    44.436159 
    1941   -9729.3428    120.49856   -9499.3463    939.73527    3.2505601    2.4590435   0.79204342    44.479702 
    1942   -9729.3985    120.20465   -9492.4559    937.44322    3.3487311    2.4635151   0.78336309    44.520742 
    1943   -9729.4356    119.83931   -9484.2802      934.594    3.4648021    2.4656317   0.77463195     44.56316 
    1944   -9729.5259    119.89837   -9477.9898    935.05457    3.5549827    2.4585268   0.76586197    44.607256 
    1945   -9729.6633    120.27078   -9476.4147    937.95889    3.5791854    2.4473851   0.75706354    44.654065 
    1946   -9729.7678    120.38248   -9480.5966    938.83002    3.5215584    2.4380055   0.74825684    44.694311 
    1947   -9729.8314    120.12252   -9488.5369    936.80267     3.410236    2.4339574   0.73944064    44.735196 
    1948   -9729.9235    119.99786   -9496.0602    935.83047     3.305211    2.4347011   0.73062434    44.775635 
    1949   -9730.0744    120.25215   -9499.6457    937.81362    3.2566688    2.4378821   0.72350653    44.816417 
    1950   -9730.2271    120.47803   -9498.4323    939.57524    3.2759768    2.4314773   0.71840309    44.941847 
    1951   -9730.3299    120.37973   -9493.8367    938.80855    3.3423802    2.4168001   0.71307966    44.982492 
    1952   -9730.4426    120.24334   -9488.3594    937.74491    3.4213845     2.391001   0.70758475    45.023617 
    1953   -9730.6114    120.33543    -9484.747    938.46309    3.4748235    2.3573536   0.70192869    45.064593 
    1954   -9730.7908    120.35358   -9485.1032    938.60466    3.4723253    2.3566973   0.69612247    45.112118 
    1955   -9730.9325    119.94632   -9489.4141    935.42857    3.4134003    2.3650806   0.69017721    45.151032 
    1956   -9731.0633    119.33566   -9495.0573    930.66621    3.3354952    2.4035208   0.68410001    45.189521 
    1957   -9731.2415    118.91121   -9498.4816      927.356    3.2896171    2.4499005   0.67790377    45.228053 
    1958   -9731.4458    118.57427   -9497.4875    924.72827    3.3065538     2.470257   0.67159664    45.266767 
    1959   -9731.6173    117.97795   -9492.0571    920.07779    3.3857266    2.4594652   0.66518521    45.305284 
    1960   -9731.7659    117.21572   -9483.8601    914.13332    3.5036751    2.4289187    0.6586745    45.366417 
    1961   -9731.9459    116.72299   -9475.7141    910.29071    3.6213476    2.4006399   0.65206336    45.407401 
    1962   -9732.1636    116.56138   -9471.0072    909.03029    3.6909484    2.3960789   0.64535946    45.446514 
    1963   -9732.3652    116.36647   -9472.0853     907.5103    3.6785605    2.4253641   0.63856518    45.542321 
    1964   -9732.5335    116.00857   -9478.4078    904.71914    3.5915816    2.4818854    0.6316823    45.593507 
    1965    -9732.718    115.80889   -9486.5368    903.16188     3.479301    2.5448242   0.62770546    45.634641 
    1966   -9732.9426    115.95862   -9492.3293    904.32954      3.40061    2.5890049   0.63406664    45.675717 
    1967   -9733.1676    116.14133   -9493.3256    905.75447    3.3897096    2.5974504   0.64009124    45.716884 
    1968   -9733.3502    116.05102   -9489.4849    905.05017    3.4465705    2.5700806   0.64577665    45.757366 
    1969   -9733.5221    115.88682     -9482.73    903.76964    3.5444673    2.5238208   0.65112124    45.795631 
    1970   -9733.7342    115.96819    -9476.286    904.40419    3.6385389    2.4840978   0.65612442    45.834059 
    1971   -9733.9623    116.17617   -9473.5343    906.02617    3.6806535    2.4721333   0.66081104     45.87302 
    1972   -9734.1601    116.16685   -9476.1488    905.95351    3.6464972    2.4944032   0.66515969    45.916906 
    1973   -9734.3341    115.97891   -9482.7665    904.48781    3.5554275    2.5394874   0.66917465    45.971403 
    1974   -9734.5341    115.93985    -9489.815    904.18319    3.4586367    2.5838387   0.67286177    46.009935 
    1975   -9734.7669    116.05306   -9493.8037    905.06611     3.405554    2.6035819   0.67622795    46.054851 
    1976   -9734.9742    115.96902   -9493.0416     904.4107    3.4192544    2.5864694   0.67930172    46.093298 
    1977   -9735.1421    115.56191   -9487.9887    901.23573    3.4930411    2.5380088   0.68206936    46.186245 
    1978    -9735.313     115.1385    -9480.907    897.93365    3.5955436    2.4787993   0.68453816     46.22497 
    1979   -9735.5127    114.92179   -9475.2854    896.24357    3.6778165    2.4344263   0.68671536    46.263659 
    1980    -9735.711    114.73245   -9474.4355    894.76696      3.69263    2.4230526   0.68860839    46.302345 
    1981   -9735.8735    114.38959   -9479.4886    892.09315    3.6235104     2.446768   0.69022741     46.34696 
    1982   -9736.0283    114.05652   -9488.5606    889.49564    3.4974823    2.4906889   0.69157834    46.385379 
    1983   -9736.2076    113.93752   -9497.9771    888.56752    3.3669334    2.5302157   0.69266979    46.423986 
    1984   -9736.3925    113.87338   -9504.4163    888.06737    3.2785406    2.5429976   0.69351044    46.462491 
    1985   -9736.5443    113.56526   -9506.2226    885.66444    3.2551582    2.5199139   0.69410864    46.504794 
    1986   -9736.6723    113.03304   -9503.7088    881.51378    3.2924949    2.4695633   0.69446009    46.546522 
    1987   -9736.8136    112.51078   -9499.0387     877.4408    3.3604936    2.4139199   0.69458471    46.585149 
    1988   -9736.9629    112.01066   -9495.5213    873.54052     3.412316    2.3773644   0.69449014    46.623729 
    1989   -9737.0817    111.38966    -9495.807    868.69752     3.409957    2.3746473   0.69418424    46.662273 
    1990   -9737.1754    110.78206   -9500.0918    863.95895    3.3507241     2.403692   0.69367519    46.700927 
    1991   -9737.2815    110.55161   -9505.9792    862.16178     3.269016    2.4466338   0.69296443    46.739529 
    1992   -9737.4101    110.76076   -9510.1493     863.7929    3.2118975     2.478617   0.69206702    46.844169 
    1993   -9737.5205    111.08018   -9510.0565    866.28393    3.2147694    2.4800705   0.69099098    46.882432 
    1994   -9737.5946     111.3007   -9504.7119    868.00374    3.2913513    2.4464437   0.68974383    46.921154 
    1995    -9737.672    111.56896   -9494.9766    870.09578    3.4300354    2.3904141    0.6883325    46.959994 
    1996   -9737.7731    111.96867    -9483.524    873.21306    3.5933246    2.3354599   0.68678316     46.99878 
    1997   -9737.8673    112.22441   -9473.8572    875.20752    3.7312777    2.3042366   0.68508226    47.047611 
    1998   -9737.9225    112.08907   -9468.3728    874.15204    3.8095702    2.3075713   0.68323622    47.093275 
    1999   -9737.9581    111.74125   -9467.1009    871.43941    3.8280492    2.3394659   0.68125157    47.139331 
    2000   -9738.0149    111.53558   -9468.2102    869.83546    3.8131748    2.3801744   0.67913466    47.177881 
Loop time of 47.1779 on 1 procs for 1000 steps with 993 atoms

Pair  time (%) = 39.6483 (84.0399)
Bond  time (%) = 0.00427842 (0.0090687)
Kspce time (%) = 2.92351 (6.19677)
Neigh time (%) = 4.29773 (9.10964)
Comm  time (%) = 0.162126 (0.343648)
Outpt time (%) = 0.0756307 (0.16031)
Other time (%) = 0.0663552 (0.140649)

Nlocal:    993 ave 993 max 993 min
Histogram: 1 0 0 0 0 0 0 0 0 0
Nghost:    15926 ave 15926 max 15926 min
Histogram: 1 0 0 0 0 0 0 0 0 0
Neighs:    894547 ave 894547 max 894547 min
Histogram: 1 0 0 0 0 0 0 0 0 0

Total # of neighbors = 894547
Ave neighs/atom = 900.853
Ave special neighs/atom = 0.193353
Neighbor list builds = 73
Dangerous builds = 1
undump save1
undump save2


